
 stresses (elem, integ.pnt.,sxx,syy,szz,sxy,sxz,syz) for set EALL and time  0.1000000E+01

         1   1 -1.072053E+05 -3.016367E+05 -8.176839E+04  9.201572E+04  3.308722E-13  1.058791E-11
         1   2 -1.875239E+05 -3.322964E+05 -1.039640E+05  3.989478E+04 -1.654361E-13 -1.091878E-11
         1   3 -2.610323E+05 -3.311882E+05 -1.184441E+05  6.174648E+03  4.218621E-12  6.038418E-12
         1   4 -1.930042E+05 -2.887782E+05 -9.635647E+04  1.062782E+05  3.970467E-12  2.646978E-12
         1   5 -2.373997E+05 -3.208103E+05 -1.116420E+05  6.426033E+04  6.617445E-13  1.455838E-11
         1   6 -2.756710E+05 -3.188456E+05 -1.189033E+05  4.134143E+04  6.121137E-12 -4.963084E-12
         1   7 -2.697747E+05 -2.728153E+05 -1.085180E+05  1.182863E+05  2.646978E-12  5.293956E-12
         1   8 -2.766260E+05 -3.066144E+05 -1.166481E+05  8.692512E+04 -2.646978E-12 -1.323489E-11
         1   9 -2.781916E+05 -3.040130E+05 -1.164409E+05  7.537120E+04  8.933551E-12 -1.191140E-11
         1  10 -1.072053E+05 -3.016367E+05 -8.176839E+04  9.201572E+04 -1.654361E-13  0.000000E+00
         1  11 -1.875239E+05 -3.322964E+05 -1.039640E+05  3.989478E+04  1.654361E-13 -3.308722E-13
         1  12 -2.610323E+05 -3.311882E+05 -1.184441E+05  6.174648E+03  2.688337E-13  8.271806E-14
         1  13 -1.930042E+05 -2.887782E+05 -9.635647E+04  1.062782E+05 -6.617445E-13 -2.646978E-12
         1  14 -2.373997E+05 -3.208103E+05 -1.116420E+05  6.426033E+04  0.000000E+00 -1.323489E-12
         1  15 -2.756710E+05 -3.188456E+05 -1.189033E+05  4.134143E+04 -4.963084E-13  0.000000E+00
         1  16 -2.697747E+05 -2.728153E+05 -1.085180E+05  1.182863E+05  4.963084E-13  6.617445E-13
         1  17 -2.766260E+05 -3.066144E+05 -1.166481E+05  8.692512E+04  4.963084E-13  4.301339E-12
         1  18 -2.781916E+05 -3.040130E+05 -1.164409E+05  7.537120E+04  5.169879E-13  8.271806E-14
         1  19 -1.072053E+05 -3.016367E+05 -8.176839E+04  9.201572E+04 -3.308722E-13 -5.293956E-12
         1  20 -1.875239E+05 -3.322964E+05 -1.039640E+05  3.989478E+04 -2.481542E-12 -4.963084E-12
         1  21 -2.610323E+05 -3.311882E+05 -1.184441E+05  6.174648E+03 -1.571643E-12  4.549493E-12
         1  22 -1.930042E+05 -2.887782E+05 -9.635647E+04  1.062782E+05 -1.323489E-12  1.852885E-11
         1  23 -2.373997E+05 -3.208103E+05 -1.116420E+05  6.426033E+04 -6.617445E-13 -3.970467E-12
         1  24 -2.756710E+05 -3.188456E+05 -1.189033E+05  4.134143E+04 -3.474159E-12 -5.624828E-12
         1  25 -2.697747E+05 -2.728153E+05 -1.085180E+05  1.182863E+05  0.000000E+00 -5.293956E-12
         1  26 -2.766260E+05 -3.066144E+05 -1.166481E+05  8.692512E+04 -2.646978E-12 -7.940934E-12
         1  27 -2.781916E+05 -3.040130E+05 -1.164409E+05  7.537120E+04 -8.933551E-12  1.720536E-11
         2   1 -2.645059E+05 -3.269275E+05 -1.182867E+05  6.114479E+03  6.286573E-12  3.970467E-12
         2   2 -2.701783E+05 -3.157395E+05 -1.171836E+05  6.342994E+03  5.293956E-12 -1.654361E-12
         2   3 -2.744399E+05 -2.989075E+05 -1.146695E+05  6.523631E+03  4.301339E-12  1.571643E-12
         2   4 -2.677762E+05 -3.110496E+05 -1.157652E+05  3.827452E+04  0.000000E+00  5.293956E-12
         2   5 -2.738778E+05 -3.059001E+05 -1.159556E+05  3.425849E+04 -3.308722E-12 -2.646978E-12
         2   6 -2.784433E+05 -2.944230E+05 -1.145733E+05  3.050924E+04 -1.488925E-12  6.286573E-12
         2   7 -2.869766E+05 -2.977401E+05 -1.169433E+05  7.095724E+04  1.058791E-11 -1.588187E-11
         2   8 -2.926701E+05 -2.987448E+05 -1.182830E+05  6.257520E+04  6.617445E-12 -1.058791E-11
         2   9 -2.967456E+05 -2.926891E+05 -1.178869E+05  5.480134E+04  8.933551E-12  0.000000E+00
         2  10 -2.645059E+05 -3.269275E+05 -1.182867E+05  6.114479E+03 -3.308722E-13 -6.617445E-13
         2  11 -2.701783E+05 -3.157395E+05 -1.171836E+05  6.342994E+03  4.963084E-13  0.000000E+00
         2  12 -2.744399E+05 -2.989075E+05 -1.146695E+05  6.523631E+03 -1.654361E-13  2.067952E-12
         2  13 -2.677762E+05 -3.110496E+05 -1.157652E+05  3.827452E+04  1.323489E-12  0.000000E+00
         2  14 -2.738778E+05 -3.059001E+05 -1.159556E+05  3.425849E+04  6.617445E-13  0.000000E+00
         2  15 -2.784433E+05 -2.944230E+05 -1.145733E+05  3.050924E+04  0.000000E+00 -3.308722E-13
         2  16 -2.869766E+05 -2.977401E+05 -1.169433E+05  7.095724E+04 -1.323489E-12  1.985233E-12
         2  17 -2.926701E+05 -2.987448E+05 -1.182830E+05  6.257520E+04 -6.617445E-13  0.000000E+00
         2  18 -2.967456E+05 -2.926891E+05 -1.178869E+05  5.480134E+04  4.549493E-13  2.233388E-12
         2  19 -2.645059E+05 -3.269275E+05 -1.182867E+05  6.114479E+03 -3.639595E-12 -3.970467E-12
         2  20 -2.701783E+05 -3.157395E+05 -1.171836E+05  6.342994E+03 -2.646978E-12 -8.933551E-12
         2  21 -2.744399E+05 -2.989075E+05 -1.146695E+05  6.523631E+03  9.926167E-13  9.016269E-12
         2  22 -2.677762E+05 -3.110496E+05 -1.157652E+05  3.827452E+04  0.000000E+00 -5.293956E-12
         2  23 -2.738778E+05 -3.059001E+05 -1.159556E+05  3.425849E+04  3.308722E-12  2.646978E-12
         2  24 -2.784433E+05 -2.944230E+05 -1.145733E+05  3.050924E+04 -9.098987E-12  1.488925E-11
         2  25 -2.869766E+05 -2.977401E+05 -1.169433E+05  7.095724E+04 -5.293956E-12  5.293956E-12
         2  26 -2.926701E+05 -2.987448E+05 -1.182830E+05  6.257520E+04 -6.617445E-12  1.058791E-11
         2  27 -2.967456E+05 -2.926891E+05 -1.178869E+05  5.480134E+04 -3.639595E-12  0.000000E+00
         3   1 -3.013104E+05 -2.997407E+05 -1.202102E+05  7.735349E+04  0.000000E+00 -1.257315E-11
         3   2 -3.052951E+05 -2.944995E+05 -1.199589E+05  7.356710E+04  1.654361E-12 -6.617445E-12
         3   3 -3.085349E+05 -2.853419E+05 -1.187754E+05  7.070873E+04  1.654361E-13  1.571643E-12
         3   4 -3.217081E+05 -2.909620E+05 -1.225340E+05  9.680062E+04 -2.646978E-12 -1.852885E-11
         3   5 -3.241780E+05 -2.886018E+05 -1.225559E+05  9.365315E+04 -9.264423E-12  2.646978E-12
         3   6 -3.258998E+05 -2.819061E+05 -1.215612E+05  9.147837E+04  1.654361E-12  1.588187E-11
         3   7 -3.451139E+05 -2.821352E+05 -1.254498E+05  1.157555E+05  0.000000E+00 -5.293956E-12
         3   8 -3.458664E+05 -2.828094E+05 -1.257352E+05  1.133212E+05  1.588187E-11 -7.940934E-12
         3   9 -3.458809E+05 -2.786910E+05 -1.249144E+05  1.119022E+05  1.522012E-11 -9.264423E-12
         3  10 -3.013104E+05 -2.997407E+05 -1.202102E+05  7.735349E+04  6.617445E-13  0.000000E+00
         3  11 -3.052951E+05 -2.944995E+05 -1.199589E+05  7.356710E+04  3.308722E-13 -3.308722E-12
         3  12 -3.085349E+05 -2.853419E+05 -1.187754E+05  7.070873E+04 -1.571643E-12  1.240771E-12
         3  13 -3.217081E+05 -2.909620E+05 -1.225340E+05  9.680062E+04 -1.323489E-12  0.000000E+00
         3  14 -3.241780E+05 -2.886018E+05 -1.225559E+05  9.365315E+04  0.000000E+00 -1.323489E-12
         3  15 -3.258998E+05 -2.819061E+05 -1.215612E+05  9.147837E+04  2.646978E-12 -3.308722E-12
         3  16 -3.451139E+05 -2.821352E+05 -1.254498E+05  1.157555E+05  0.000000E+00  2.646978E-12
         3  17 -3.458664E+05 -2.828094E+05 -1.257352E+05  1.133212E+05 -1.654361E-12 -3.308722E-12
         3  18 -3.458809E+05 -2.786910E+05 -1.249144E+05  1.119022E+05 -9.926167E-13 -2.481542E-13
         3  19 -3.013104E+05 -2.997407E+05 -1.202102E+05  7.735349E+04 -7.940934E-12  1.257315E-11
         3  20 -3.052951E+05 -2.944995E+05 -1.199589E+05  7.356710E+04 -1.654361E-12  6.617445E-12
         3  21 -3.085349E+05 -2.853419E+05 -1.187754E+05  7.070873E+04 -1.654361E-13 -1.571643E-12
         3  22 -3.217081E+05 -2.909620E+05 -1.225340E+05  9.680062E+04 -2.646978E-12  7.940934E-12
         3  23 -3.241780E+05 -2.886018E+05 -1.225559E+05  9.365315E+04 -1.323489E-12 -2.646978E-12
         3  24 -3.258998E+05 -2.819061E+05 -1.215612E+05  9.147837E+04 -1.654361E-12  5.293956E-12
         3  25 -3.451139E+05 -2.821352E+05 -1.254498E+05  1.157555E+05  0.000000E+00  1.588187E-11
         3  26 -3.458664E+05 -2.828094E+05 -1.257352E+05  1.133212E+05 -1.058791E-11  7.940934E-12
         3  27 -3.458809E+05 -2.786910E+05 -1.249144E+05  1.119022E+05 -1.522012E-11  9.264423E-12
         4   1 -2.997064E+05 -2.710214E+05 -1.141456E+05  1.202366E+05  3.639595E-12  1.985233E-12
         4   2 -2.937265E+05 -2.889332E+05 -1.165319E+05  1.030368E+05  8.271806E-12 -4.301339E-12
         4   3 -2.857033E+05 -2.986595E+05 -1.168726E+05  8.557963E+04 -1.406207E-12 -8.106370E-12
         4   4 -3.276535E+05 -2.661146E+05 -1.187536E+05  1.265837E+05  7.940934E-12  2.646978E-12
         4   5 -3.232365E+05 -2.819372E+05 -1.210347E+05  1.144329E+05 -2.646978E-12  9.264423E-12
         4   6 -3.166367E+05 -2.892791E+05 -1.211832E+05  1.016990E+05  9.926167E-13  3.308722E-13
         4   7 -3.518714E+05 -2.618317E+05 -1.227406E+05  1.335719E+05  7.940934E-12 -5.293956E-12
         4   8 -3.495538E+05 -2.756037E+05 -1.250315E+05  1.266797E+05 -7.940934E-12 -1.852885E-11
         4   9 -3.448651E+05 -2.805752E+05 -1.250881E+05  1.188398E+05  6.617445E-13 -3.970467E-12
         4  10 -2.997064E+05 -2.710214E+05 -1.141456E+05  1.202366E+05 -3.308722E-13  6.617445E-13
         4  11 -2.937265E+05 -2.889332E+05 -1.165319E+05  1.030368E+05  1.654361E-13 -9.926167E-13
         4  12 -2.857033E+05 -2.986595E+05 -1.168726E+05  8.557963E+04  5.790264E-13 -1.654361E-13
         4  13 -3.276535E+05 -2.661146E+05 -1.187536E+05  1.265837E+05 -6.617445E-13  0.000000E+00
         4  14 -3.232365E+05 -2.819372E+05 -1.210347E+05  1.144329E+05  0.000000E+00  6.617445E-13
         4  15 -3.166367E+05 -2.892791E+05 -1.211832E+05  1.016990E+05 -8.271806E-13  1.488925E-12
         4  16 -3.518714E+05 -2.618317E+05 -1.227406E+05  1.335719E+05  0.000000E+00 -1.985233E-12
         4  17 -3.495538E+05 -2.756037E+05 -1.250315E+05  1.266797E+05 -1.654361E-13 -9.926167E-13
         4  18 -3.448651E+05 -2.805752E+05 -1.250881E+05  1.188398E+05 -1.654361E-13 -1.654361E-13
         4  19 -2.997064E+05 -2.710214E+05 -1.141456E+05  1.202366E+05 -3.639595E-12 -7.279189E-12
         4  20 -2.937265E+05 -2.889332E+05 -1.165319E+05  1.030368E+05 -2.977850E-12  4.301339E-12
         4  21 -2.857033E+05 -2.986595E+05 -1.168726E+05  8.557963E+04 -3.887749E-12 -2.481542E-12
         4  22 -3.276535E+05 -2.661146E+05 -1.187536E+05  1.265837E+05 -2.646978E-12  7.940934E-12
         4  23 -3.232365E+05 -2.819372E+05 -1.210347E+05  1.144329E+05  2.646978E-12  1.323489E-12
         4  24 -3.166367E+05 -2.892791E+05 -1.211832E+05  1.016990E+05 -1.158053E-11  1.555100E-11
         4  25 -3.518714E+05 -2.618317E+05 -1.227406E+05  1.335719E+05 -7.940934E-12  0.000000E+00
         4  26 -3.495538E+05 -2.756037E+05 -1.250315E+05  1.266797E+05 -2.646978E-12 -2.646978E-12
         4  27 -3.448651E+05 -2.805752E+05 -1.250881E+05  1.188398E+05 -5.955700E-12  1.455838E-11
         5   1 -1.808825E+05 -1.172711E+05 -5.963073E+04  4.671889E+03 -5.293956E-12 -1.588187E-11
         5   2 -1.846019E+05 -1.165086E+05 -6.022210E+04  8.812560E+03  1.389663E-11  6.352747E-11
         5   3 -1.887908E+05 -1.156376E+05 -6.088568E+04  1.302635E+04  6.038418E-12 -3.044025E-11
         5   4 -1.995236E+05 -1.260013E+05 -6.510497E+04  6.191638E+03  2.646978E-12  3.176374E-11
         5   5 -2.023446E+05 -1.240976E+05 -6.528842E+04  1.225832E+04  1.191140E-11 -3.705769E-11
         5   6 -2.050203E+05 -1.218679E+05 -6.537762E+04  1.860860E+04  8.933551E-12 -1.720536E-11
         5   7 -2.186492E+05 -1.369914E+05 -7.112812E+04  8.019636E+03  0.000000E+00 -2.117582E-11
         5   8 -2.205181E+05 -1.342774E+05 -7.095911E+04  1.569224E+04 -1.323489E-11 -2.117582E-11
         5   9 -2.218067E+05 -1.311171E+05 -7.058478E+04  2.376481E+04  7.940934E-12 -1.058791E-11
         5  10 -1.808825E+05 -1.172711E+05 -5.963073E+04  4.671889E+03  1.985233E-12  0.000000E+00
         5  11 -1.846019E+05 -1.165086E+05 -6.022210E+04  8.812560E+03  6.617445E-13  1.058791E-11
         5  12 -1.887908E+05 -1.156376E+05 -6.088568E+04  1.302635E+04  9.926167E-13 -1.323489E-12
         5  13 -1.995236E+05 -1.260013E+05 -6.510497E+04  6.191638E+03  2.646978E-12  5.293956E-12
         5  14 -2.023446E+05 -1.240976E+05 -6.528842E+04  1.225832E+04 -5.293956E-12  5.293956E-12
         5  15 -2.050203E+05 -1.218679E+05 -6.537762E+04  1.860860E+04  4.632211E-12 -1.985233E-12
         5  16 -2.186492E+05 -1.369914E+05 -7.112812E+04  8.019636E+03 -1.985233E-12 -7.940934E-12
         5  17 -2.205181E+05 -1.342774E+05 -7.095911E+04  1.569224E+04 -1.323489E-12  1.191140E-11
         5  18 -2.218067E+05 -1.311171E+05 -7.058478E+04  2.376481E+04  2.646978E-12 -1.654361E-12
         5  19 -1.808825E+05 -1.172711E+05 -5.963073E+04  4.671889E+03  1.588187E-11  3.705769E-11
         5  20 -1.846019E+05 -1.165086E+05 -6.022210E+04  8.812560E+03 -3.308722E-12 -2.117582E-11
         5  21 -1.887908E+05 -1.156376E+05 -6.088568E+04  1.302635E+04 -6.038418E-12  5.161607E-11
         5  22 -1.995236E+05 -1.260013E+05 -6.510497E+04  6.191638E+03 -2.382280E-11  1.058791E-11
         5  23 -2.023446E+05 -1.240976E+05 -6.528842E+04  1.225832E+04 -1.323489E-12 -5.293956E-12
         5  24 -2.050203E+05 -1.218679E+05 -6.537762E+04  1.860860E+04  1.654361E-12  1.720536E-11
         5  25 -2.186492E+05 -1.369914E+05 -7.112812E+04  8.019636E+03  0.000000E+00  2.117582E-11
         5  26 -2.205181E+05 -1.342774E+05 -7.095911E+04  1.569224E+04 -2.911676E-11  0.000000E+00
         5  27 -2.218067E+05 -1.311171E+05 -7.058478E+04  2.376481E+04 -7.940934E-12  1.058791E-11
         6   1 -1.910468E+05 -1.146299E+05 -6.113533E+04  1.602637E+04  1.323489E-12 -5.293956E-12
         6   2 -1.937195E+05 -1.119265E+05 -6.112920E+04  2.089039E+04  9.264423E-12 -3.705769E-11
         6   3 -1.960140E+05 -1.095713E+05 -6.111707E+04  2.550877E+04 -2.142398E-11 -2.680065E-11
         6   4 -2.075743E+05 -1.212202E+05 -6.575889E+04  2.279927E+04  5.293956E-12 -1.058791E-11
         6   5 -2.118302E+05 -1.167089E+05 -6.570781E+04  2.818793E+04 -5.293956E-12 -1.588187E-11
         6   6 -2.156494E+05 -1.121027E+05 -6.555042E+04  3.363436E+04 -3.970467E-12  5.293956E-12
         6   7 -2.245075E+05 -1.289411E+05 -7.068972E+04  3.048277E+04  1.058791E-11 -2.117582E-11
         6   8 -2.302663E+05 -1.233986E+05 -7.073298E+04  3.640546E+04  5.293956E-12 -1.058791E-11
         6   9 -2.355485E+05 -1.175244E+05 -7.061459E+04  4.261863E+04  5.955700E-12  1.058791E-11
         6  10 -1.910468E+05 -1.146299E+05 -6.113533E+04  1.602637E+04  1.323489E-12  2.646978E-12
         6  11 -1.937195E+05 -1.119265E+05 -6.112920E+04  2.089039E+04 -1.985233E-12  1.323489E-12
         6  12 -1.960140E+05 -1.095713E+05 -6.111707E+04  2.550877E+04  1.819797E-12  2.977850E-12
         6  13 -2.075743E+05 -1.212202E+05 -6.575889E+04  2.279927E+04  2.646978E-12 -1.058791E-11
         6  14 -2.118302E+05 -1.167089E+05 -6.570781E+04  2.818793E+04 -2.646978E-12 -1.588187E-11
         6  15 -2.156494E+05 -1.121027E+05 -6.555042E+04  3.363436E+04  4.301339E-12  1.522012E-11
         6  16 -2.245075E+05 -1.289411E+05 -7.068972E+04  3.048277E+04 -1.323489E-12  5.293956E-12
         6  17 -2.302663E+05 -1.233986E+05 -7.073298E+04  3.640546E+04 -3.308722E-12 -1.323489E-12
         6  18 -2.355485E+05 -1.175244E+05 -7.061459E+04  4.261863E+04 -1.158053E-12  1.985233E-12
         6  19 -1.910468E+05 -1.146299E+05 -6.113533E+04  1.602637E+04 -1.323489E-12 -1.588187E-11
         6  20 -1.937195E+05 -1.119265E+05 -6.112920E+04  2.089039E+04 -9.264423E-12  3.705769E-11
         6  21 -1.960140E+05 -1.095713E+05 -6.111707E+04  2.550877E+04  2.481542E-13  4.797648E-11
         6  22 -2.075743E+05 -1.212202E+05 -6.575889E+04  2.279927E+04  5.293956E-12  1.058791E-11
         6  23 -2.118302E+05 -1.167089E+05 -6.570781E+04  2.818793E+04  1.588187E-11 -2.646978E-11
         6  24 -2.156494E+05 -1.121027E+05 -6.555042E+04  3.363436E+04 -6.617445E-12  3.705769E-11
         6  25 -2.245075E+05 -1.289411E+05 -7.068972E+04  3.048277E+04 -1.058791E-11  0.000000E+00
         6  26 -2.302663E+05 -1.233986E+05 -7.073298E+04  3.640546E+04 -5.293956E-12 -1.058791E-11
         6  27 -2.355485E+05 -1.175244E+05 -7.061459E+04  4.261863E+04 -1.654361E-11  1.058791E-11
         7   1 -2.364670E+05 -1.342617E+05 -7.414574E+04  3.447141E+04  7.940934E-12 -3.176374E-11
         7   2 -2.388697E+05 -1.265504E+05 -7.308403E+04  4.244499E+04  1.323489E-11 -1.323489E-11
         7   3 -2.498042E+05 -1.213063E+05 -7.422209E+04  4.895868E+04  2.812414E-12  2.779327E-11
         7   4 -2.490513E+05 -1.435462E+05 -7.851950E+04  4.116208E+04 -1.323489E-11  4.235165E-11
         7   5 -2.577420E+05 -1.352255E+05 -7.859351E+04  5.178298E+04  0.000000E+00  5.293956E-12
         7   6 -2.728074E+05 -1.285076E+05 -8.026300E+04  6.168884E+04  9.264423E-12 -6.088049E-11
         7   7 -2.617721E+05 -1.529449E+05 -8.294339E+04  4.990440E+04  1.058791E-11  0.000000E+00
         7   8 -2.761457E+05 -1.444636E+05 -8.412187E+04  6.272373E+04 -5.293956E-12  0.000000E+00
         7   9 -2.951008E+05 -1.369209E+05 -8.640434E+04  7.541091E+04  1.455838E-11  1.058791E-11
         7  10 -2.364670E+05 -1.342617E+05 -7.414574E+04  3.447141E+04  0.000000E+00  2.646978E-12
         7  11 -2.388697E+05 -1.265504E+05 -7.308403E+04  4.244499E+04  4.632211E-12  2.646978E-12
         7  12 -2.498042E+05 -1.213063E+05 -7.422209E+04  4.895868E+04  1.654361E-13  2.646978E-12
         7  13 -2.490513E+05 -1.435462E+05 -7.851950E+04  4.116208E+04  0.000000E+00 -1.058791E-11
         7  14 -2.577420E+05 -1.352255E+05 -7.859351E+04  5.178298E+04  1.323489E-12  2.646978E-12
         7  15 -2.728074E+05 -1.285076E+05 -8.026300E+04  6.168884E+04 -1.985233E-12 -7.279189E-12
         7  16 -2.617721E+05 -1.529449E+05 -8.294339E+04  4.990440E+04  0.000000E+00  0.000000E+00
         7  17 -2.761457E+05 -1.444636E+05 -8.412187E+04  6.272373E+04 -1.323489E-12 -3.970467E-12
         7  18 -2.951008E+05 -1.369209E+05 -8.640434E+04  7.541091E+04  1.654361E-13  1.323489E-12
         7  19 -2.364670E+05 -1.342617E+05 -7.414574E+04  3.447141E+04 -1.852885E-11  3.176374E-11
         7  20 -2.388697E+05 -1.265504E+05 -7.308403E+04  4.244499E+04 -2.646978E-12  3.441071E-11
         7  21 -2.498042E+05 -1.213063E+05 -7.422209E+04  4.895868E+04 -1.340033E-11 -6.617445E-12
         7  22 -2.490513E+05 -1.435462E+05 -7.851950E+04  4.116208E+04 -1.852885E-11  0.000000E+00
         7  23 -2.577420E+05 -1.352255E+05 -7.859351E+04  5.178298E+04  0.000000E+00 -2.646978E-11
         7  24 -2.728074E+05 -1.285076E+05 -8.026300E+04  6.168884E+04 -3.044025E-11  6.088049E-11
         7  25 -2.617721E+05 -1.529449E+05 -8.294339E+04  4.990440E+04 -1.058791E-11  4.235165E-11
         7  26 -2.761457E+05 -1.444636E+05 -8.412187E+04  6.272373E+04 -5.293956E-12  0.000000E+00
         7  27 -2.951008E+05 -1.369209E+05 -8.640434E+04  7.541091E+04  6.617445E-12 -3.176374E-11
         8   1 -2.289036E+05 -1.433773E+05 -7.445620E+04  8.443701E+03  8.602678E-12  1.323489E-11
         8   2 -2.260910E+05 -1.394817E+05 -7.311453E+04  1.861138E+04 -4.963084E-12 -1.323489E-11
         8   3 -2.330478E+05 -1.376080E+05 -7.413116E+04  2.804700E+04  1.555100E-11 -2.812414E-11
         8   4 -2.446468E+05 -1.542959E+05 -7.978854E+04  7.007226E+03  1.588187E-11 -2.117582E-11
         8   5 -2.419692E+05 -1.506620E+05 -7.852626E+04  2.163235E+04 -2.646978E-12  2.117582E-11
         8   6 -2.458785E+05 -1.483288E+05 -7.884146E+04  3.600443E+04  2.878589E-11  1.852885E-11
         8   7 -2.604413E+05 -1.653874E+05 -8.516576E+04  5.606540E+03  0.000000E+00  0.000000E+00
         8   8 -2.572574E+05 -1.618080E+05 -8.381308E+04  2.383107E+04  7.940934E-12  5.293956E-11
         8   9 -2.581502E+05 -1.589554E+05 -8.342112E+04  4.210572E+04  1.257315E-11 -3.970467E-11
         8  10 -2.289036E+05 -1.433773E+05 -7.445620E+04  8.443701E+03  1.985233E-12  0.000000E+00
         8  11 -2.260910E+05 -1.394817E+05 -7.311453E+04  1.861138E+04 -3.308722E-13 -6.617445E-12
         8  12 -2.330478E+05 -1.376080E+05 -7.413116E+04  2.804700E+04  7.444626E-13  7.279189E-12
         8  13 -2.446468E+05 -1.542959E+05 -7.978854E+04  7.007226E+03 -1.323489E-12 -1.058791E-11
         8  14 -2.419692E+05 -1.506620E+05 -7.852626E+04  2.163235E+04 -1.323489E-12 -1.058791E-11
         8  15 -2.458785E+05 -1.483288E+05 -7.884146E+04  3.600443E+04 -6.617445E-13 -1.985233E-12
         8  16 -2.604413E+05 -1.653874E+05 -8.516576E+04  5.606540E+03  0.000000E+00  2.646978E-12
         8  17 -2.572574E+05 -1.618080E+05 -8.381308E+04  2.383107E+04  1.654361E-12 -6.617445E-12
         8  18 -2.581502E+05 -1.589554E+05 -8.342112E+04  4.210572E+04 -4.135903E-13 -5.624828E-12
         8  19 -2.289036E+05 -1.433773E+05 -7.445620E+04  8.443701E+03 -8.602678E-12 -1.323489E-11
         8  20 -2.260910E+05 -1.394817E+05 -7.311453E+04  1.861138E+04 -5.624828E-12  1.323489E-11
         8  21 -2.330478E+05 -1.376080E+05 -7.413116E+04  2.804700E+04  5.624828E-12  2.812414E-11
         8  22 -2.446468E+05 -1.542959E+05 -7.978854E+04  7.007226E+03 -1.058791E-11  4.235165E-11
         8  23 -2.419692E+05 -1.506620E+05 -7.852626E+04  2.163235E+04 -2.646978E-12 -2.117582E-11
         8  24 -2.458785E+05 -1.483288E+05 -7.884146E+04  3.600443E+04  2.977850E-12  2.382280E-11
         8  25 -2.604413E+05 -1.653874E+05 -8.516576E+04  5.606540E+03 -5.293956E-12  0.000000E+00
         8  26 -2.572574E+05 -1.618080E+05 -8.381308E+04  2.383107E+04 -2.646978E-12  1.058791E-11
         8  27 -2.581502E+05 -1.589554E+05 -8.342112E+04  4.210572E+04 -1.257315E-11 -2.382280E-11
         9   1 -9.637553E+04 -1.089027E+05 -4.105565E+04 -3.339927E+03 -1.488925E-12  2.481542E-12
         9   2 -1.299496E+05 -1.352391E+05 -5.303774E+04  1.738678E+04  5.376674E-13  2.977850E-12
         9   3 -1.502303E+05 -1.317518E+05 -5.639642E+04  2.815964E+04 -1.313149E-12  2.590109E-12
         9   4 -1.015575E+05 -1.317423E+05 -4.665996E+04  8.910680E+02 -1.323489E-12  3.308722E-12
         9   5 -1.444474E+05 -1.516489E+05 -5.921926E+04  2.980908E+04 -3.308722E-13  4.135903E-13
         9   6 -1.753549E+05 -1.464771E+05 -6.436638E+04  4.967663E+04 -1.364848E-12  1.778438E-12
         9   7 -1.071802E+05 -1.560788E+05 -5.265179E+04  9.295634E+03 -3.308722E-12  3.639595E-12
         9   8 -1.562183E+05 -1.660407E+05 -6.445181E+04  4.376595E+04 -1.654361E-12  2.977850E-12
         9   9 -1.974071E+05 -1.597404E+05 -7.142952E+04  7.222118E+04 -2.150670E-12  3.060568E-12
         9  10 -9.637553E+04 -1.089027E+05 -4.105565E+04 -3.339927E+03 -8.271806E-14 -4.135903E-14
         9  11 -1.299496E+05 -1.352391E+05 -5.303774E+04  1.738678E+04  1.240771E-13 -3.101927E-14
         9  12 -1.502303E+05 -1.317518E+05 -5.639642E+04  2.815964E+04 -3.101927E-14  5.428373E-14
         9  13 -1.015575E+05 -1.317423E+05 -4.665996E+04  8.910680E+02  1.654361E-13  0.000000E+00
         9  14 -1.444474E+05 -1.516489E+05 -5.921926E+04  2.980908E+04  8.271806E-14  8.271806E-14
         9  15 -1.753549E+05 -1.464771E+05 -6.436638E+04  4.967663E+04  4.135903E-14  0.000000E+00
         9  16 -1.071802E+05 -1.560788E+05 -5.265179E+04  9.295634E+03  8.271806E-14  4.135903E-14
         9  17 -1.562183E+05 -1.660407E+05 -6.445181E+04  4.376595E+04  1.654361E-13 -4.135903E-14
         9  18 -1.974071E+05 -1.597404E+05 -7.142952E+04  7.222118E+04  0.000000E+00 -2.067952E-14
         9  19 -9.637553E+04 -1.089027E+05 -4.105565E+04 -3.339927E+03  1.488925E-12 -2.646978E-12
         9  20 -1.299496E+05 -1.352391E+05 -5.303774E+04  1.738678E+04 -5.376674E-13 -2.812414E-12
         9  21 -1.502303E+05 -1.317518E+05 -5.639642E+04  2.815964E+04  1.313149E-12 -2.920982E-12
         9  22 -1.015575E+05 -1.317423E+05 -4.665996E+04  8.910680E+02  1.323489E-12 -3.308722E-12
         9  23 -1.444474E+05 -1.516489E+05 -5.921926E+04  2.980908E+04  3.308722E-13 -4.135903E-13
         9  24 -1.753549E+05 -1.464771E+05 -6.436638E+04  4.967663E+04  1.364848E-12 -2.109311E-12
         9  25 -1.071802E+05 -1.560788E+05 -5.265179E+04  9.295634E+03  2.646978E-12 -3.308722E-12
         9  26 -1.562183E+05 -1.660407E+05 -6.445181E+04  4.376595E+04  1.654361E-12 -3.308722E-12
         9  27 -1.974071E+05 -1.597404E+05 -7.142952E+04  7.222118E+04  1.488925E-12 -3.722313E-12
        10   1 -1.788412E+05 -1.260531E+05 -6.097885E+04  4.275122E+04 -1.116694E-12  2.274747E-12
        10   2 -2.286462E+05 -1.085405E+05 -6.743734E+04  6.383232E+04 -1.654361E-13  1.158053E-12
        10   3 -2.706094E+05 -8.034227E+04 -7.019033E+04  7.889249E+04 -2.067952E-13  3.618915E-13
        10   4 -2.043076E+05 -1.390781E+05 -6.867714E+04  6.574184E+04 -2.316106E-12  2.316106E-12
        10   5 -2.629134E+05 -1.208270E+05 -7.674809E+04  8.740562E+04 -1.654361E-13  0.000000E+00
        10   6 -3.132725E+05 -9.183793E+04 -8.102208E+04  1.031039E+05 -2.067952E-13  3.101927E-13
        10   7 -2.449120E+05 -1.560326E+05 -8.018893E+04  9.090954E+04 -3.308722E-12  3.308722E-12
        10   8 -3.110853E+05 -1.366655E+05 -8.955016E+04  1.130285E+05 -6.617445E-13  9.926167E-13
        10   9 -3.687372E+05 -1.065498E+05 -9.505741E+04  1.292538E+05 -2.895132E-13  3.308722E-13
        10  10 -1.788412E+05 -1.260531E+05 -6.097885E+04  4.275122E+04  4.135903E-14  0.000000E+00
        10  11 -2.286462E+05 -1.085405E+05 -6.743734E+04  6.383232E+04 -4.135903E-14 -4.135903E-14
        10  12 -2.706094E+05 -8.034227E+04 -7.019033E+04  7.889249E+04 -1.033976E-14  5.169879E-15
        10  13 -2.043076E+05 -1.390781E+05 -6.867714E+04  6.574184E+04  0.000000E+00  0.000000E+00
        10  14 -2.629134E+05 -1.208270E+05 -7.674809E+04  8.740562E+04  0.000000E+00  1.240771E-13
        10  15 -3.132725E+05 -9.183793E+04 -8.102208E+04  1.031039E+05 -2.067952E-14  4.135903E-14
        10  16 -2.449120E+05 -1.560326E+05 -8.018893E+04  9.090954E+04  4.135903E-14  4.135903E-14
        10  17 -3.110853E+05 -1.366655E+05 -8.955016E+04  1.130285E+05  0.000000E+00 -8.271806E-14
        10  18 -3.687372E+05 -1.065498E+05 -9.505741E+04  1.292538E+05 -2.067952E-14  1.550964E-14
        10  19 -1.788412E+05 -1.260531E+05 -6.097885E+04  4.275122E+04  1.116694E-12 -2.274747E-12
        10  20 -2.286462E+05 -1.085405E+05 -6.743734E+04  6.383232E+04  3.308722E-13 -9.926167E-13
        10  21 -2.706094E+05 -8.034227E+04 -7.019033E+04  7.889249E+04  1.654361E-13 -3.205325E-13
        10  22 -2.043076E+05 -1.390781E+05 -6.867714E+04  6.574184E+04  9.926167E-13 -2.316106E-12
        10  23 -2.629134E+05 -1.208270E+05 -7.674809E+04  8.740562E+04  4.963084E-13  0.000000E+00
        10  24 -3.132725E+05 -9.183793E+04 -8.102208E+04  1.031039E+05  2.067952E-13 -3.101927E-13
        10  25 -2.449120E+05 -1.560326E+05 -8.018893E+04  9.090954E+04  2.646978E-12 -3.639595E-12
        10  26 -3.110853E+05 -1.366655E+05 -8.955016E+04  1.130285E+05  6.617445E-13 -1.158053E-12
        10  27 -3.687372E+05 -1.065498E+05 -9.505741E+04  1.292538E+05  4.549493E-13 -3.722313E-13
        11   1 -2.726196E+05 -1.603021E+05 -8.658435E+04  1.052193E+05 -1.819797E-12  2.398824E-12
        11   2 -3.355538E+05 -1.301045E+05 -9.313166E+04  1.216683E+05 -8.685396E-13  7.444626E-13
        11   3 -4.003582E+05 -1.093077E+05 -1.019332E+05  1.401803E+05 -2.378144E-13  1.757759E-13
        11   4 -3.267735E+05 -1.653590E+05 -9.842649E+04  1.290815E+05 -3.308722E-12  1.323489E-12
        11   5 -3.918841E+05 -1.397757E+05 -1.063320E+05  1.416046E+05  0.000000E+00  4.963084E-13
        11   6 -4.592740E+05 -1.231167E+05 -1.164781E+05  1.565037E+05 -2.895132E-13  1.654361E-13
        11   7 -3.885645E+05 -1.727770E+05 -1.122683E+05  1.501915E+05 -6.617445E-13  1.323489E-12
        11   8 -4.549427E+05 -1.513490E+05 -1.212583E+05  1.591110E+05 -6.617445E-13  3.308722E-13
        11   9 -5.240389E+05 -1.384308E+05 -1.324939E+05  1.706776E+05 -1.654361E-13  8.271806E-14
        11  10 -2.726196E+05 -1.603021E+05 -8.658435E+04  1.052193E+05 -1.654361E-13 -8.271806E-14
        11  11 -3.355538E+05 -1.301045E+05 -9.313166E+04  1.216683E+05 -1.654361E-13 -4.135903E-14
        11  12 -4.003582E+05 -1.093077E+05 -1.019332E+05  1.401803E+05 -4.135903E-14  2.067952E-14
        11  13 -3.267735E+05 -1.653590E+05 -9.842649E+04  1.290815E+05  0.000000E+00 -1.654361E-13
        11  14 -3.918841E+05 -1.397757E+05 -1.063320E+05  1.416046E+05  0.000000E+00  0.000000E+00
        11  15 -4.592740E+05 -1.231167E+05 -1.164781E+05  1.565037E+05  2.067952E-14 -6.203855E-14
        11  16 -3.885645E+05 -1.727770E+05 -1.122683E+05  1.501915E+05  0.000000E+00  0.000000E+00
        11  17 -4.549427E+05 -1.513490E+05 -1.212583E+05  1.591110E+05  0.000000E+00  4.135903E-14
        11  18 -5.240389E+05 -1.384308E+05 -1.324939E+05  1.706776E+05  1.033976E-14  0.000000E+00
        11  19 -2.726196E+05 -1.603021E+05 -8.658435E+04  1.052193E+05  2.481542E-12 -2.398824E-12
        11  20 -3.355538E+05 -1.301045E+05 -9.313166E+04  1.216683E+05  5.376674E-13 -7.444626E-13
        11  21 -4.003582E+05 -1.093077E+05 -1.019332E+05  1.401803E+05  4.032505E-13 -2.584939E-13
        11  22 -3.267735E+05 -1.653590E+05 -9.842649E+04  1.290815E+05  1.985233E-12 -1.985233E-12
        11  23 -3.918841E+05 -1.397757E+05 -1.063320E+05  1.416046E+05  0.000000E+00  1.654361E-13
        11  24 -4.592740E+05 -1.231167E+05 -1.164781E+05  1.565037E+05  3.722313E-13 -2.481542E-13
        11  25 -3.885645E+05 -1.727770E+05 -1.122683E+05  1.501915E+05  1.985233E-12 -1.323489E-12
        11  26 -4.549427E+05 -1.513490E+05 -1.212583E+05  1.591110E+05  3.308722E-13 -3.308722E-13
        11  27 -5.240389E+05 -1.384308E+05 -1.324939E+05  1.706776E+05  3.308722E-13 -8.271806E-14
        12   1 -1.017457E+05 -1.623222E+05 -5.281359E+04  1.372888E+04 -2.646978E-12  3.805031E-12
        12   2 -1.804440E+05 -1.904034E+05 -7.416949E+04  6.450096E+04 -4.301339E-12  3.101927E-12
        12   3 -2.255326E+05 -1.772216E+05 -8.055083E+04  9.251813E+04 -2.822754E-12  3.794691E-12
        12   4 -1.137535E+05 -2.053601E+05 -6.382272E+04  3.951933E+04 -4.632211E-12  3.970467E-12
        12   5 -2.073336E+05 -2.086372E+05 -8.319417E+04  8.674846E+04 -1.985233E-12  3.308722E-13
        12   6 -2.746621E+05 -1.831159E+05 -9.155559E+04  1.169798E+05 -4.963084E-13  2.481542E-12
        12   7 -1.476317E+05 -2.492566E+05 -7.937765E+04  7.236895E+04 -4.632211E-12  5.955700E-12
        12   8 -2.478521E+05 -2.265689E+05 -9.488419E+04  1.127036E+05 -3.308722E-12  2.316106E-12
        12   9 -3.325120E+05 -1.897065E+05 -1.044437E+05  1.435445E+05  8.271806E-14  4.963084E-13
        12  10 -1.017457E+05 -1.623222E+05 -5.281359E+04  1.372888E+04  1.654361E-13 -8.271806E-14
        12  11 -1.804440E+05 -1.904034E+05 -7.416949E+04  6.450096E+04  3.308722E-13  1.654361E-13
        12  12 -2.255326E+05 -1.772216E+05 -8.055083E+04  9.251813E+04  9.305782E-14 -9.305782E-14
        12  13 -1.137535E+05 -2.053601E+05 -6.382272E+04  3.951933E+04  0.000000E+00 -3.308722E-13
        12  14 -2.073336E+05 -2.086372E+05 -8.319417E+04  8.674846E+04  3.308722E-13  1.654361E-13
        12  15 -2.746621E+05 -1.831159E+05 -9.155559E+04  1.169798E+05 -1.240771E-13 -2.067952E-14
        12  16 -1.476317E+05 -2.492566E+05 -7.937765E+04  7.236895E+04  8.271806E-14  0.000000E+00
        12  17 -2.478521E+05 -2.265689E+05 -9.488419E+04  1.127036E+05 -4.549493E-13  4.135903E-14
        12  18 -3.325120E+05 -1.897065E+05 -1.044437E+05  1.435445E+05  9.305782E-14 -5.169879E-14
        12  19 -1.017457E+05 -1.623222E+05 -5.281359E+04  1.372888E+04  3.308722E-12 -3.805031E-12
        12  20 -1.804440E+05 -1.904034E+05 -7.416949E+04  6.450096E+04  3.639595E-12 -4.425416E-12
        12  21 -2.255326E+05 -1.772216E+05 -8.055083E+04  9.251813E+04  3.484498E-12 -3.132947E-12
        12  22 -1.137535E+05 -2.053601E+05 -6.382272E+04  3.951933E+04  4.632211E-12 -3.970467E-12
        12  23 -2.073336E+05 -2.086372E+05 -8.319417E+04  8.674846E+04  0.000000E+00  3.308722E-13
        12  24 -2.746621E+05 -1.831159E+05 -9.155559E+04  1.169798E+05  3.143286E-12 -3.143286E-12
        12  25 -1.476317E+05 -2.492566E+05 -7.937765E+04  7.236895E+04  5.955700E-12 -5.955700E-12
        12  26 -2.478521E+05 -2.265689E+05 -9.488419E+04  1.127036E+05  3.308722E-12 -4.301339E-12
        12  27 -3.325120E+05 -1.897065E+05 -1.044437E+05  1.435445E+05  3.887749E-12 -4.963084E-13
        13   1 -3.930459E+05 -1.900114E+05 -1.166115E+05  1.622195E+05  6.617445E-12 -3.970467E-12
        13   2 -3.948398E+05 -1.838520E+05 -1.157384E+05  1.706948E+05 -8.271806E-13 -1.654361E-13
        13   3 -3.980040E+05 -1.770187E+05 -1.150045E+05  1.803682E+05 -7.651421E-13  3.060568E-12
        13   4 -3.646459E+05 -1.974260E+05 -1.124144E+05  1.596261E+05 -6.617445E-13 -2.646978E-12
        13   5 -3.625938E+05 -1.939268E+05 -1.113041E+05  1.688490E+05  9.926167E-13  1.985233E-12
        13   6 -3.624144E+05 -1.886675E+05 -1.102164E+05  1.794920E+05  6.617445E-13 -9.926167E-13
        13   7 -3.350850E+05 -2.047985E+05 -1.079767E+05  1.559979E+05  1.323489E-12  0.000000E+00
        13   8 -3.280580E+05 -2.037854E+05 -1.063687E+05  1.667229E+05  1.323489E-12 -2.646978E-12
        13   9 -3.236950E+05 -1.996660E+05 -1.046722E+05  1.790427E+05  4.963084E-13 -1.654361E-12
        13  10 -3.930459E+05 -1.900114E+05 -1.166115E+05  1.622195E+05 -3.308722E-13  0.000000E+00
        13  11 -3.948398E+05 -1.838520E+05 -1.157384E+05  1.706948E+05  4.963084E-13 -1.654361E-13
        13  12 -3.980040E+05 -1.770187E+05 -1.150045E+05  1.803682E+05 -4.135903E-13 -8.271806E-14
        13  13 -3.646459E+05 -1.974260E+05 -1.124144E+05  1.596261E+05  0.000000E+00  0.000000E+00
        13  14 -3.625938E+05 -1.939268E+05 -1.113041E+05  1.688490E+05 -9.926167E-13 -3.308722E-13
        13  15 -3.624144E+05 -1.886675E+05 -1.102164E+05  1.794920E+05  3.308722E-13  2.481542E-13
        13  16 -3.350850E+05 -2.047985E+05 -1.079767E+05  1.559979E+05 -1.654361E-13  0.000000E+00
        13  17 -3.280580E+05 -2.037854E+05 -1.063687E+05  1.667229E+05  1.654361E-13 -3.308722E-13
        13  18 -3.236950E+05 -1.996660E+05 -1.046722E+05  1.790427E+05 -3.101927E-13  8.271806E-14
        13  19 -3.930459E+05 -1.900114E+05 -1.166115E+05  1.622195E+05 -3.970467E-12  3.970467E-12
        13  20 -3.948398E+05 -1.838520E+05 -1.157384E+05  1.706948E+05 -3.143286E-12  1.654361E-13
        13  21 -3.980040E+05 -1.770187E+05 -1.150045E+05  1.803682E+05 -5.583469E-13  2.233388E-12
        13  22 -3.646459E+05 -1.974260E+05 -1.124144E+05  1.596261E+05 -6.617445E-13  0.000000E+00
        13  23 -3.625938E+05 -1.939268E+05 -1.113041E+05  1.688490E+05  3.308722E-13 -1.985233E-12
        13  24 -3.624144E+05 -1.886675E+05 -1.102164E+05  1.794920E+05 -6.617445E-13  9.926167E-13
        13  25 -3.350850E+05 -2.047985E+05 -1.079767E+05  1.559979E+05  0.000000E+00  2.646978E-12
        13  26 -3.280580E+05 -2.037854E+05 -1.063687E+05  1.667229E+05 -1.323489E-12  5.293956E-12
        13  27 -3.236950E+05 -1.996660E+05 -1.046722E+05  1.790427E+05 -4.963084E-13 -9.926167E-13
        14   1 -4.005471E+05 -1.673260E+05 -1.135746E+05  1.885407E+05  1.985233E-12  6.617445E-13
        14   2 -4.145254E+05 -1.493574E+05 -1.127765E+05  1.957526E+05  3.308722E-13 -4.135903E-13
        14   3 -4.274502E+05 -1.236521E+05 -1.102205E+05  2.024202E+05  1.447566E-13 -4.756289E-13
        14   4 -3.633467E+05 -1.810126E+05 -1.088719E+05  1.895692E+05 -6.617445E-13  0.000000E+00
        14   5 -3.737320E+05 -1.676424E+05 -1.082749E+05  2.014633E+05 -9.926167E-13  6.617445E-13
        14   6 -3.829881E+05 -1.436076E+05 -1.053191E+05  2.125330E+05  1.654361E-13 -3.308722E-13
        14   7 -3.255029E+05 -1.986157E+05 -1.048237E+05  1.880913E+05  2.646978E-12  1.323489E-12
        14   8 -3.310244E+05 -1.884057E+05 -1.038860E+05  2.063910E+05  6.617445E-13 -2.646978E-12
        14   9 -3.354747E+05 -1.641245E+05 -9.991984E+04  2.233201E+05 -7.444626E-13 -6.617445E-13
        14  10 -4.005471E+05 -1.673260E+05 -1.135746E+05  1.885407E+05  0.000000E+00  0.000000E+00
        14  11 -4.145254E+05 -1.493574E+05 -1.127765E+05  1.957526E+05  0.000000E+00 -8.271806E-14
        14  12 -4.274502E+05 -1.236521E+05 -1.102205E+05  2.024202E+05  0.000000E+00 -1.447566E-13
        14  13 -3.633467E+05 -1.810126E+05 -1.088719E+05  1.895692E+05  0.000000E+00 -3.308722E-13
        14  14 -3.737320E+05 -1.676424E+05 -1.082749E+05  2.014633E+05  0.000000E+00 -9.926167E-13
        14  15 -3.829881E+05 -1.436076E+05 -1.053191E+05  2.125330E+05  1.654361E-13 -4.135903E-14
        14  16 -3.255029E+05 -1.986157E+05 -1.048237E+05  1.880913E+05  1.654361E-13 -1.654361E-13
        14  17 -3.310244E+05 -1.884057E+05 -1.038860E+05  2.063910E+05 -4.135903E-13 -5.790264E-13
        14  18 -3.354747E+05 -1.641245E+05 -9.991984E+04  2.233201E+05 -4.135903E-14 -1.447566E-13
        14  19 -4.005471E+05 -1.673260E+05 -1.135746E+05  1.885407E+05 -1.323489E-12  6.617445E-13
        14  20 -4.145254E+05 -1.493574E+05 -1.127765E+05  1.957526E+05 -3.308722E-13 -2.481542E-13
        14  21 -4.274502E+05 -1.236521E+05 -1.102205E+05  2.024202E+05 -3.101927E-13  1.447566E-13
        14  22 -3.633467E+05 -1.810126E+05 -1.088719E+05  1.895692E+05 -6.617445E-13  1.323489E-12
        14  23 -3.737320E+05 -1.676424E+05 -1.082749E+05  2.014633E+05  9.926167E-13 -6.617445E-13
        14  24 -3.829881E+05 -1.436076E+05 -1.053191E+05  2.125330E+05 -4.963084E-13  3.308722E-13
        14  25 -3.255029E+05 -1.986157E+05 -1.048237E+05  1.880913E+05  0.000000E+00 -2.646978E-12
        14  26 -3.310244E+05 -1.884057E+05 -1.038860E+05  2.063910E+05 -1.323489E-12  1.323489E-12
        14  27 -3.354747E+05 -1.641245E+05 -9.991984E+04  2.233201E+05  8.271806E-14 -6.617445E-13
        15   1 -3.015764E+05 -2.120941E+05 -1.027341E+05  1.865093E+05  1.737079E-12  2.316106E-12
        15   2 -3.021798E+05 -2.011044E+05 -1.006568E+05  2.042665E+05  1.240771E-13  8.271806E-13
        15   3 -3.021610E+05 -1.907481E+05 -9.858181E+04  2.217070E+05  3.101927E-14 -2.481542E-13
        15   4 -2.625012E+05 -2.279437E+05 -9.808899E+04  1.843884E+05 -6.617445E-13  3.970467E-12
        15   5 -2.617567E+05 -2.251460E+05 -9.738055E+04  1.997389E+05  1.323489E-12  6.617445E-13
        15   6 -2.607177E+05 -2.228260E+05 -9.670875E+04  2.150214E+05  1.488925E-12 -4.963084E-13
        15   7 -2.269623E+05 -2.485726E+05 -9.510698E+04  1.789900E+05  2.646978E-12  2.646978E-12
        15   8 -2.238107E+05 -2.542859E+05 -9.561932E+04  1.924909E+05  1.323489E-12 -1.323489E-12
        15   9 -2.209697E+05 -2.602202E+05 -9.623797E+04  2.061570E+05 -8.271806E-14 -1.985233E-12
        15  10 -3.015764E+05 -2.120941E+05 -1.027341E+05  1.865093E+05 -1.654361E-13 -3.308722E-13
        15  11 -3.021798E+05 -2.011044E+05 -1.006568E+05  2.042665E+05  0.000000E+00 -1.654361E-13
        15  12 -3.021610E+05 -1.907481E+05 -9.858181E+04  2.217070E+05 -2.067952E-14 -2.067952E-13
        15  13 -2.625012E+05 -2.279437E+05 -9.808899E+04  1.843884E+05  3.308722E-13  0.000000E+00
        15  14 -2.617567E+05 -2.251460E+05 -9.738055E+04  1.997389E+05 -3.308722E-13  3.308722E-13
        15  15 -2.607177E+05 -2.228260E+05 -9.670875E+04  2.150214E+05 -1.240771E-13 -4.135903E-13
        15  16 -2.269623E+05 -2.485726E+05 -9.510698E+04  1.789900E+05  0.000000E+00  6.617445E-13
        15  17 -2.238107E+05 -2.542859E+05 -9.561932E+04  1.924909E+05  0.000000E+00  1.654361E-13
        15  18 -2.209697E+05 -2.602202E+05 -9.623797E+04  2.061570E+05  1.654361E-13 -1.240771E-13
        15  19 -3.015764E+05 -2.120941E+05 -1.027341E+05  1.865093E+05 -3.060568E-12  3.308722E-13
        15  20 -3.021798E+05 -2.011044E+05 -1.006568E+05  2.042665E+05 -1.447566E-12 -8.271806E-13
        15  21 -3.021610E+05 -1.907481E+05 -9.858181E+04  2.217070E+05 -3.101927E-14  2.481542E-13
        15  22 -2.625012E+05 -2.279437E+05 -9.808899E+04  1.843884E+05  6.617445E-13  1.323489E-12
        15  23 -2.617567E+05 -2.251460E+05 -9.738055E+04  1.997389E+05  0.000000E+00 -6.617445E-13
        15  24 -2.607177E+05 -2.228260E+05 -9.670875E+04  2.150214E+05 -1.488925E-12  4.963084E-13
        15  25 -2.269623E+05 -2.485726E+05 -9.510698E+04  1.789900E+05 -2.646978E-12 -2.646978E-12
        15  26 -2.238107E+05 -2.542859E+05 -9.561932E+04  1.924909E+05 -6.617445E-13  6.617445E-12
        15  27 -2.209697E+05 -2.602202E+05 -9.623797E+04  2.061570E+05 -1.240771E-12 -6.617445E-13
        16   1 -3.148706E+05 -2.078978E+05 -1.045537E+05  1.535771E+05  1.654361E-12  6.617445E-13
        16   2 -3.085291E+05 -2.096921E+05 -1.036442E+05  1.660185E+05  4.797648E-12  2.646978E-12
        16   3 -3.023168E+05 -2.128377E+05 -1.030309E+05  1.786468E+05  3.701633E-12 -4.963084E-13
        16   4 -2.798531E+05 -2.197242E+05 -9.991545E+04  1.534125E+05  3.970467E-12  1.323489E-12
        16   5 -2.734006E+05 -2.238244E+05 -9.944500E+04  1.640486E+05  9.926167E-13  3.308722E-12
        16   6 -2.671309E+05 -2.293318E+05 -9.929254E+04  1.749868E+05  2.067952E-12 -2.150670E-12
        16   7 -2.417405E+05 -2.308855E+05 -9.452521E+04  1.528842E+05  2.646978E-12 -5.293956E-12
        16   8 -2.354797E+05 -2.375784E+05 -9.461163E+04  1.619025E+05  0.000000E+00  6.617445E-12
        16   9 -2.294126E+05 -2.456957E+05 -9.502166E+04  1.713440E+05  3.805031E-12 -1.323489E-12
        16  10 -3.148706E+05 -2.078978E+05 -1.045537E+05  1.535771E+05  1.654361E-13  3.308722E-13
        16  11 -3.085291E+05 -2.096921E+05 -1.036442E+05  1.660185E+05  1.654361E-13  0.000000E+00
        16  12 -3.023168E+05 -2.128377E+05 -1.030309E+05  1.786468E+05 -2.067952E-14  1.240771E-13
        16  13 -2.798531E+05 -2.197242E+05 -9.991545E+04  1.534125E+05  0.000000E+00  1.323489E-12
        16  14 -2.734006E+05 -2.238244E+05 -9.944500E+04  1.640486E+05  0.000000E+00 -1.323489E-12
        16  15 -2.671309E+05 -2.293318E+05 -9.929254E+04  1.749868E+05  4.135903E-14 -1.819797E-12
        16  16 -2.417405E+05 -2.308855E+05 -9.452521E+04  1.528842E+05  3.308722E-13  0.000000E+00
        16  17 -2.354797E+05 -2.375784E+05 -9.461163E+04  1.619025E+05  4.963084E-13 -6.617445E-13
        16  18 -2.294126E+05 -2.456957E+05 -9.502166E+04  1.713440E+05  6.203855E-14 -6.203855E-13
        16  19 -3.148706E+05 -2.078978E+05 -1.045537E+05  1.535771E+05 -3.308722E-13 -3.308722E-12
        16  20 -3.085291E+05 -2.096921E+05 -1.036442E+05  1.660185E+05 -8.271806E-13  0.000000E+00
        16  21 -3.023168E+05 -2.128377E+05 -1.030309E+05  1.786468E+05 -3.701633E-12  4.963084E-13
        16  22 -2.798531E+05 -2.197242E+05 -9.991545E+04  1.534125E+05 -2.646978E-12  1.323489E-12
        16  23 -2.734006E+05 -2.238244E+05 -9.944500E+04  1.640486E+05 -9.926167E-13  1.985233E-12
        16  24 -2.671309E+05 -2.293318E+05 -9.929254E+04  1.749868E+05  5.790264E-13 -4.963084E-13
        16  25 -2.417405E+05 -2.308855E+05 -9.452521E+04  1.528842E+05 -2.646978E-12  5.293956E-12
        16  26 -2.354797E+05 -2.375784E+05 -9.461163E+04  1.619025E+05  0.000000E+00  1.323489E-12
        16  27 -2.294126E+05 -2.456957E+05 -9.502166E+04  1.713440E+05 -2.481542E-12 -1.323489E-12
        17   1 -4.091196E+05 -1.909394E+05 -1.200118E+05  1.610773E+05  5.624828E-12 -6.286573E-12
        17   2 -4.004663E+05 -2.012621E+05 -1.203457E+05  1.571872E+05 -1.654361E-13  6.617445E-13
        17   3 -3.929028E+05 -2.134223E+05 -1.212650E+05  1.546856E+05  1.902515E-12  7.899575E-12
        17   4 -4.410809E+05 -1.871747E+05 -1.256511E+05  1.640111E+05  0.000000E+00  0.000000E+00
        17   5 -4.322941E+05 -1.975243E+05 -1.259637E+05  1.610760E+05 -1.985233E-12  6.617445E-13
        17   6 -4.246358E+05 -2.096835E+05 -1.268639E+05  1.593224E+05  5.128520E-12 -3.308722E-13
        17   7 -4.695832E+05 -1.825918E+05 -1.304350E+05  1.668136E+05  5.293956E-12  3.970467E-12
        17   8 -4.613085E+05 -1.931213E+05 -1.308860E+05  1.648148E+05  2.646978E-12  5.293956E-12
        17   9 -4.541219E+05 -2.054142E+05 -1.319072E+05  1.637968E+05  2.977850E-12  0.000000E+00
        17  10 -4.091196E+05 -1.909394E+05 -1.200118E+05  1.610773E+05  0.000000E+00  3.308722E-13
        17  11 -4.004663E+05 -2.012621E+05 -1.203457E+05  1.571872E+05 -1.158053E-12 -6.617445E-13
        17  12 -3.929028E+05 -2.134223E+05 -1.212650E+05  1.546856E+05 -4.135903E-14  4.549493E-13
        17  13 -4.410809E+05 -1.871747E+05 -1.256511E+05  1.640111E+05 -1.323489E-12  6.617445E-13
        17  14 -4.322941E+05 -1.975243E+05 -1.259637E+05  1.610760E+05 -1.323489E-12 -1.323489E-12
        17  15 -4.246358E+05 -2.096835E+05 -1.268639E+05  1.593224E+05  4.963084E-13  1.158053E-12
        17  16 -4.695832E+05 -1.825918E+05 -1.304350E+05  1.668136E+05  6.617445E-13  0.000000E+00
        17  17 -4.613085E+05 -1.931213E+05 -1.308860E+05  1.648148E+05  1.654361E-13  9.926167E-13
        17  18 -4.541219E+05 -2.054142E+05 -1.319072E+05  1.637968E+05  4.135903E-14  2.895132E-13
        17  19 -4.091196E+05 -1.909394E+05 -1.200118E+05  1.610773E+05 -2.977850E-12  6.286573E-12
        17  20 -4.004663E+05 -2.012621E+05 -1.203457E+05  1.571872E+05  1.654361E-13  1.985233E-12
        17  21 -3.929028E+05 -2.134223E+05 -1.212650E+05  1.546856E+05 -4.549493E-12 -2.605619E-12
        17  22 -4.410809E+05 -1.871747E+05 -1.256511E+05  1.640111E+05  0.000000E+00 -2.646978E-12
        17  23 -4.322941E+05 -1.975243E+05 -1.259637E+05  1.610760E+05 -3.308722E-12 -5.955700E-12
        17  24 -4.246358E+05 -2.096835E+05 -1.268639E+05  1.593224E+05  1.654361E-13  3.308722E-13
        17  25 -4.695832E+05 -1.825918E+05 -1.304350E+05  1.668136E+05 -5.293956E-12 -1.323489E-12
        17  26 -4.613085E+05 -1.931213E+05 -1.308860E+05  1.648148E+05 -5.293956E-12  2.646978E-12
        17  27 -4.541219E+05 -2.054142E+05 -1.319072E+05  1.637968E+05 -3.308722E-13 -2.646978E-12
        18   1 -3.883021E+05 -2.217764E+05 -1.220157E+05  1.534335E+05  2.646978E-12 -6.948317E-12
        18   2 -3.810141E+05 -2.370521E+05 -1.236132E+05  1.484974E+05  2.977850E-12 -3.639595E-12
        18   3 -3.737515E+05 -2.509226E+05 -1.249348E+05  1.442036E+05  2.936491E-12 -1.497197E-11
        18   4 -4.203198E+05 -2.177967E+05 -1.276233E+05  1.580240E+05 -1.323489E-12 -1.323489E-11
        18   5 -4.132311E+05 -2.317350E+05 -1.289932E+05  1.551771E+05  0.000000E+00  0.000000E+00
        18   6 -4.061906E+05 -2.444300E+05 -1.301241E+05  1.527383E+05  8.437242E-12  9.926167E-13
        18   7 -4.485192E+05 -2.128149E+05 -1.322668E+05  1.630451E+05  5.293956E-12  2.646978E-12
        18   8 -4.423066E+05 -2.256002E+05 -1.335814E+05  1.621918E+05  6.617445E-12  7.940934E-12
        18   9 -4.360935E+05 -2.372822E+05 -1.346751E+05  1.615261E+05 -2.316106E-12 -4.301339E-12
        18  10 -3.883021E+05 -2.217764E+05 -1.220157E+05  1.534335E+05  3.308722E-13  0.000000E+00
        18  11 -3.810141E+05 -2.370521E+05 -1.236132E+05  1.484974E+05 -1.654361E-13 -1.654361E-12
        18  12 -3.737515E+05 -2.509226E+05 -1.249348E+05  1.442036E+05 -9.512577E-13 -6.203855E-13
        18  13 -4.203198E+05 -2.177967E+05 -1.276233E+05  1.580240E+05  0.000000E+00  1.323489E-12
        18  14 -4.132311E+05 -2.317350E+05 -1.289932E+05  1.551771E+05 -1.323489E-12 -1.985233E-12
        18  15 -4.061906E+05 -2.444300E+05 -1.301241E+05  1.527383E+05  6.617445E-13  0.000000E+00
        18  16 -4.485192E+05 -2.128149E+05 -1.322668E+05  1.630451E+05  3.308722E-13  6.617445E-13
        18  17 -4.423066E+05 -2.256002E+05 -1.335814E+05  1.621918E+05 -4.963084E-13  9.926167E-13
        18  18 -4.360935E+05 -2.372822E+05 -1.346751E+05  1.615261E+05  6.617445E-13  7.858216E-13
        18  19 -3.883021E+05 -2.217764E+05 -1.220157E+05  1.534335E+05 -5.293956E-12  1.654361E-12
        18  20 -3.810141E+05 -2.370521E+05 -1.236132E+05  1.484974E+05 -2.977850E-12  3.639595E-12
        18  21 -3.737515E+05 -2.509226E+05 -1.249348E+05  1.442036E+05  2.357465E-12  9.678013E-12
        18  22 -4.203198E+05 -2.177967E+05 -1.276233E+05  1.580240E+05 -1.323489E-12  2.646978E-12
        18  23 -4.132311E+05 -2.317350E+05 -1.289932E+05  1.551771E+05  0.000000E+00 -1.058791E-11
        18  24 -4.061906E+05 -2.444300E+05 -1.301241E+05  1.527383E+05  2.150670E-12  4.301339E-12
        18  25 -4.485192E+05 -2.128149E+05 -1.322668E+05  1.630451E+05  0.000000E+00 -7.940934E-12
        18  26 -4.423066E+05 -2.256002E+05 -1.335814E+05  1.621918E+05 -6.617445E-12 -2.646978E-12
        18  27 -4.360935E+05 -2.372822E+05 -1.346751E+05  1.615261E+05 -2.977850E-12  4.301339E-12
        19   1 -4.638481E+05 -2.108993E+05 -1.349495E+05  1.653253E+05  2.316106E-12  7.279189E-12
        19   2 -4.569495E+05 -2.235406E+05 -1.360980E+05  1.647866E+05  6.617445E-12  3.143286E-12
        19   3 -4.513009E+05 -2.364157E+05 -1.375433E+05  1.655323E+05 -1.985233E-12 -1.902515E-12
        19   4 -4.889342E+05 -2.102645E+05 -1.398397E+05  1.694035E+05  1.323489E-12  5.293956E-12
        19   5 -4.817524E+05 -2.235690E+05 -1.410643E+05  1.711603E+05 -5.293956E-12  5.955700E-12
        19   6 -4.757065E+05 -2.369959E+05 -1.425405E+05  1.739133E+05  6.782881E-12 -2.812414E-12
        19   7 -5.086324E+05 -2.083433E+05 -1.433951E+05  1.731405E+05  2.646978E-12  5.293956E-12
        19   8 -5.019966E+05 -2.225051E+05 -1.449003E+05  1.772005E+05  1.323489E-11  1.323489E-12
        19   9 -4.962987E+05 -2.366596E+05 -1.465917E+05  1.819721E+05  0.000000E+00  1.654361E-12
        19  10 -4.638481E+05 -2.108993E+05 -1.349495E+05  1.653253E+05 -9.926167E-13  6.617445E-13
        19  11 -4.569495E+05 -2.235406E+05 -1.360980E+05  1.647866E+05  3.308722E-13 -1.323489E-12
        19  12 -4.513009E+05 -2.364157E+05 -1.375433E+05  1.655323E+05 -7.444626E-13 -5.790264E-13
        19  13 -4.889342E+05 -2.102645E+05 -1.398397E+05  1.694035E+05  0.000000E+00  0.000000E+00
        19  14 -4.817524E+05 -2.235690E+05 -1.410643E+05  1.711603E+05 -3.308722E-12 -1.323489E-12
        19  15 -4.757065E+05 -2.369959E+05 -1.425405E+05  1.739133E+05 -1.158053E-12  1.654361E-13
        19  16 -5.086324E+05 -2.083433E+05 -1.433951E+05  1.731405E+05  0.000000E+00  1.323489E-12
        19  17 -5.019966E+05 -2.225051E+05 -1.449003E+05  1.772005E+05 -6.617445E-13  1.654361E-13
        19  18 -4.962987E+05 -2.366596E+05 -1.465917E+05  1.819721E+05  2.233388E-12 -7.031035E-13
        19  19 -4.638481E+05 -2.108993E+05 -1.349495E+05  1.653253E+05 -2.316106E-12 -1.985233E-12
        19  20 -4.569495E+05 -2.235406E+05 -1.360980E+05  1.647866E+05 -1.323489E-12  2.150670E-12
        19  21 -4.513009E+05 -2.364157E+05 -1.375433E+05  1.655323E+05 -3.308722E-12  7.196471E-12
        19  22 -4.889342E+05 -2.102645E+05 -1.398397E+05  1.694035E+05 -1.323489E-12  5.293956E-12
        19  23 -4.817524E+05 -2.235690E+05 -1.410643E+05  1.711603E+05  0.000000E+00 -5.955700E-12
        19  24 -4.757065E+05 -2.369959E+05 -1.425405E+05  1.739133E+05  3.805031E-12  8.106370E-12
        19  25 -5.086324E+05 -2.083433E+05 -1.433951E+05  1.731405E+05 -2.646978E-12  0.000000E+00
        19  26 -5.019966E+05 -2.225051E+05 -1.449003E+05  1.772005E+05 -1.323489E-11  3.970467E-12
        19  27 -4.962987E+05 -2.366596E+05 -1.465917E+05  1.819721E+05 -5.293956E-12 -1.654361E-12
        20   1 -4.846498E+05 -1.810889E+05 -1.331477E+05  1.676627E+05  6.617445E-13 -1.654361E-12
        20   2 -4.761232E+05 -1.915894E+05 -1.335425E+05  1.659497E+05  0.000000E+00  3.474159E-12
        20   3 -4.692767E+05 -2.037726E+05 -1.346099E+05  1.657924E+05 -1.158053E-12 -4.549493E-12
        20   4 -5.089265E+05 -1.795929E+05 -1.377039E+05  1.690350E+05  2.646978E-12 -6.617445E-12
        20   5 -4.999094E+05 -1.901931E+05 -1.380205E+05  1.683156E+05 -3.308722E-12 -6.617445E-13
        20   6 -4.925278E+05 -2.024125E+05 -1.389881E+05  1.689455E+05  2.316106E-12  2.812414E-12
        20   7 -5.299196E+05 -1.773141E+05 -1.414467E+05  1.703131E+05 -2.646978E-12  1.323489E-12
        20   8 -5.210033E+05 -1.881534E+05 -1.418314E+05  1.705769E+05  0.000000E+00 -3.970467E-12
        20   9 -5.136083E+05 -2.005331E+05 -1.428283E+05  1.719887E+05 -6.617445E-12 -8.271806E-13
        20  10 -4.846498E+05 -1.810889E+05 -1.331477E+05  1.676627E+05  3.308722E-13  0.000000E+00
        20  11 -4.761232E+05 -1.915894E+05 -1.335425E+05  1.659497E+05 -6.617445E-13  0.000000E+00
        20  12 -4.692767E+05 -2.037726E+05 -1.346099E+05  1.657924E+05  4.135903E-14  4.135903E-14
        20  13 -5.089265E+05 -1.795929E+05 -1.377039E+05  1.690350E+05  0.000000E+00  0.000000E+00
        20  14 -4.999094E+05 -1.901931E+05 -1.380205E+05  1.683156E+05  2.316106E-12 -3.308722E-13
        20  15 -4.925278E+05 -2.024125E+05 -1.389881E+05  1.689455E+05 -8.271806E-14 -8.271806E-13
        20  16 -5.299196E+05 -1.773141E+05 -1.414467E+05  1.703131E+05 -3.308722E-13  6.617445E-13
        20  17 -5.210033E+05 -1.881534E+05 -1.418314E+05  1.705769E+05  3.308722E-13  1.654361E-13
        20  18 -5.136083E+05 -2.005331E+05 -1.428283E+05  1.719887E+05 -7.031035E-13 -2.067952E-13
        20  19 -4.846498E+05 -1.810889E+05 -1.331477E+05  1.676627E+05 -3.308722E-12  1.654361E-12
        20  20 -4.761232E+05 -1.915894E+05 -1.335425E+05  1.659497E+05 -5.293956E-12 -8.271806E-13
        20  21 -4.692767E+05 -2.037726E+05 -1.346099E+05  1.657924E+05 -6.782881E-12  4.549493E-12
        20  22 -5.089265E+05 -1.795929E+05 -1.377039E+05  1.690350E+05  0.000000E+00 -1.323489E-12
        20  23 -4.999094E+05 -1.901931E+05 -1.380205E+05  1.683156E+05  6.617445E-13 -4.632211E-12
        20  24 -4.925278E+05 -2.024125E+05 -1.389881E+05  1.689455E+05 -4.963084E-12 -2.812414E-12
        20  25 -5.299196E+05 -1.773141E+05 -1.414467E+05  1.703131E+05 -2.646978E-12 -3.970467E-12
        20  26 -5.210033E+05 -1.881534E+05 -1.418314E+05  1.705769E+05 -5.293956E-12  3.970467E-12
        20  27 -5.136083E+05 -2.005331E+05 -1.428283E+05  1.719887E+05 -3.970467E-12 -1.819797E-12
        21   1 -2.758531E+05 -2.309446E+05 -1.013595E+05  1.729308E+04  6.617445E-13 -1.191140E-11
        21   2 -2.885959E+05 -2.203030E+05 -1.017798E+05  4.426883E+04  9.926167E-12  1.323489E-11
        21   3 -2.961181E+05 -2.061951E+05 -1.004626E+05  6.878887E+04  2.043136E-11  6.948317E-12
        21   4 -2.876830E+05 -2.401350E+05 -1.055636E+05  3.950466E+04  2.646978E-12 -1.058791E-11
        21   5 -3.025550E+05 -2.292694E+05 -1.063649E+05  6.403119E+04 -1.455838E-11  0.000000E+00
        21   6 -3.108723E+05 -2.143801E+05 -1.050505E+05  8.561918E+04  3.970467E-12 -1.323489E-11
        21   7 -2.988851E+05 -2.503453E+05 -1.098461E+05  6.159877E+04  0.000000E+00 -1.058791E-11
        21   8 -3.169453E+05 -2.395128E+05 -1.112916E+05  8.333025E+04  5.293956E-12  1.058791E-11
        21   9 -3.270975E+05 -2.240647E+05 -1.102324E+05  1.015292E+05  2.382280E-11  1.191140E-11
        21  10 -2.758531E+05 -2.309446E+05 -1.013595E+05  1.729308E+04  6.617445E-13 -2.646978E-12
        21  11 -2.885959E+05 -2.203030E+05 -1.017798E+05  4.426883E+04  3.308722E-13 -1.985233E-12
        21  12 -2.961181E+05 -2.061951E+05 -1.004626E+05  6.878887E+04  1.902515E-12 -1.819797E-12
        21  13 -2.876830E+05 -2.401350E+05 -1.055636E+05  3.950466E+04 -1.323489E-12  0.000000E+00
        21  14 -3.025550E+05 -2.292694E+05 -1.063649E+05  6.403119E+04 -3.970467E-12 -5.293956E-12
        21  15 -3.108723E+05 -2.143801E+05 -1.050505E+05  8.561918E+04 -8.271806E-13  0.000000E+00
        21  16 -2.988851E+05 -2.503453E+05 -1.098461E+05  6.159877E+04 -6.617445E-13  0.000000E+00
        21  17 -3.169453E+05 -2.395128E+05 -1.112916E+05  8.333025E+04  3.308722E-12  1.985233E-12
        21  18 -3.270975E+05 -2.240647E+05 -1.102324E+05  1.015292E+05 -1.488925E-12 -6.617445E-13
        21  19 -2.758531E+05 -2.309446E+05 -1.013595E+05  1.729308E+04 -5.955700E-12  1.191140E-11
        21  20 -2.885959E+05 -2.203030E+05 -1.017798E+05  4.426883E+04 -9.926167E-12  7.940934E-12
        21  21 -2.961181E+05 -2.061951E+05 -1.004626E+05  6.878887E+04 -4.549493E-12 -6.948317E-12
        21  22 -2.876830E+05 -2.401350E+05 -1.055636E+05  3.950466E+04 -7.940934E-12  2.117582E-11
        21  23 -3.025550E+05 -2.292694E+05 -1.063649E+05  6.403119E+04 -6.617445E-12  0.000000E+00
        21  24 -3.108723E+05 -2.143801E+05 -1.050505E+05  8.561918E+04 -1.455838E-11  1.323489E-11
        21  25 -2.988851E+05 -2.503453E+05 -1.098461E+05  6.159877E+04 -5.293956E-12  2.117582E-11
        21  26 -3.169453E+05 -2.395128E+05 -1.112916E+05  8.333025E+04 -5.293956E-12  0.000000E+00
        21  27 -3.270975E+05 -2.240647E+05 -1.102324E+05  1.015292E+05  2.646978E-12 -1.323489E-12
        22   1 -3.003623E+05 -1.937583E+05 -9.882412E+04  7.918615E+04 -7.279189E-12  1.455838E-11
        22   2 -3.118491E+05 -1.723581E+05 -9.684146E+04  8.589984E+04  1.191140E-11 -1.058791E-11
        22   3 -3.152696E+05 -1.437221E+05 -9.179834E+04  8.783924E+04  1.737079E-11 -1.124966E-11
        22   4 -3.182889E+05 -2.024790E+05 -1.041536E+05  9.414143E+04  1.323489E-11 -1.588187E-11
        22   5 -3.340868E+05 -1.806190E+05 -1.029412E+05  1.012294E+05  1.058791E-11  1.323489E-11
        22   6 -3.412012E+05 -1.509985E+05 -9.843994E+04  1.033197E+05 -1.389663E-11 -1.323489E-11
        22   7 -3.341958E+05 -2.129044E+05 -1.094200E+05  1.098317E+05  2.117582E-11 -1.058791E-11
        22   8 -3.547305E+05 -1.908056E+05 -1.091072E+05  1.172214E+05  1.852885E-11 -2.117582E-11
        22   9 -3.661075E+05 -1.605030E+05 -1.053221E+05  1.194100E+05 -3.970467E-12  7.940934E-12
        22  10 -3.003623E+05 -1.937583E+05 -9.882412E+04  7.918615E+04  1.323489E-12 -1.323489E-12
        22  11 -3.118491E+05 -1.723581E+05 -9.684146E+04  8.589984E+04 -1.323489E-12 -5.293956E-12
        22  12 -3.152696E+05 -1.437221E+05 -9.179834E+04  8.783924E+04 -1.819797E-12  1.488925E-12
        22  13 -3.182889E+05 -2.024790E+05 -1.041536E+05  9.414143E+04  0.000000E+00  0.000000E+00
        22  14 -3.340868E+05 -1.806190E+05 -1.029412E+05  1.012294E+05  0.000000E+00 -2.646978E-12
        22  15 -3.412012E+05 -1.509985E+05 -9.843994E+04  1.033197E+05 -1.323489E-12  1.323489E-12
        22  16 -3.341958E+05 -2.129044E+05 -1.094200E+05  1.098317E+05 -6.617445E-13 -3.970467E-12
        22  17 -3.547305E+05 -1.908056E+05 -1.091072E+05  1.172214E+05 -6.617445E-13  3.970467E-12
        22  18 -3.661075E+05 -1.605030E+05 -1.053221E+05  1.194100E+05 -9.926167E-13  2.150670E-12
        22  19 -3.003623E+05 -1.937583E+05 -9.882412E+04  7.918615E+04 -3.308722E-12  6.617445E-12
        22  20 -3.118491E+05 -1.723581E+05 -9.684146E+04  8.589984E+04 -1.191140E-11  1.058791E-11
        22  21 -3.152696E+05 -1.437221E+05 -9.179834E+04  8.783924E+04 -6.782881E-12 -9.926167E-12
        22  22 -3.182889E+05 -2.024790E+05 -1.041536E+05  9.414143E+04 -1.323489E-11  1.588187E-11
        22  23 -3.340868E+05 -1.806190E+05 -1.029412E+05  1.012294E+05  1.058791E-11 -1.323489E-11
        22  24 -3.412012E+05 -1.509985E+05 -9.843994E+04  1.033197E+05  1.389663E-11 -7.940934E-12
        22  25 -3.341958E+05 -2.129044E+05 -1.094200E+05  1.098317E+05  0.000000E+00 -1.058791E-11
        22  26 -3.547305E+05 -1.908056E+05 -1.091072E+05  1.172214E+05 -7.940934E-12  0.000000E+00
        22  27 -3.661075E+05 -1.605030E+05 -1.053221E+05  1.194100E+05  3.970467E-12 -7.940934E-12
        23   1 -3.472517E+05 -2.197313E+05 -1.133966E+05  1.200260E+05  1.455838E-11  6.617445E-12
        23   2 -3.672125E+05 -1.964158E+05 -1.127257E+05  1.266282E+05  7.279189E-12 -2.977850E-11
        23   3 -3.825877E+05 -1.671330E+05 -1.099441E+05  1.299838E+05  5.955700E-12 -1.968690E-11
        23   4 -3.699344E+05 -2.293428E+05 -1.198554E+05  1.366427E+05  1.588187E-11 -2.117582E-11
        23   5 -3.918615E+05 -2.065640E+05 -1.196851E+05  1.439475E+05  7.940934E-12  1.058791E-11
        23   6 -4.091872E+05 -1.778430E+05 -1.174060E+05  1.481118E+05  2.150670E-11 -3.970467E-11
        23   7 -3.904396E+05 -2.408879E+05 -1.262655E+05  1.539155E+05  2.646978E-11 -2.117582E-11
        23   8 -4.145517E+05 -2.191144E+05 -1.267332E+05  1.617961E+05 -5.293956E-12 -2.646978E-11
        23   9 -4.341468E+05 -1.915965E+05 -1.251487E+05  1.666595E+05  1.389663E-11 -2.514629E-11
        23  10 -3.472517E+05 -2.197313E+05 -1.133966E+05  1.200260E+05  1.985233E-12  0.000000E+00
        23  11 -3.672125E+05 -1.964158E+05 -1.127257E+05  1.266282E+05 -2.646978E-12  1.323489E-12
        23  12 -3.825877E+05 -1.671330E+05 -1.099441E+05  1.299838E+05  8.271806E-13  1.158053E-12
        23  13 -3.699344E+05 -2.293428E+05 -1.198554E+05  1.366427E+05  0.000000E+00  0.000000E+00
        23  14 -3.918615E+05 -2.065640E+05 -1.196851E+05  1.439475E+05  2.646978E-12  7.940934E-12
        23  15 -4.091872E+05 -1.778430E+05 -1.174060E+05  1.481118E+05 -3.308722E-13 -6.617445E-12
        23  16 -3.904396E+05 -2.408879E+05 -1.262655E+05  1.539155E+05  0.000000E+00  0.000000E+00
        23  17 -4.145517E+05 -2.191144E+05 -1.267332E+05  1.617961E+05 -3.970467E-12 -6.617445E-13
        23  18 -4.341468E+05 -1.915965E+05 -1.251487E+05  1.666595E+05  2.646978E-12 -2.150670E-12
        23  19 -3.472517E+05 -2.197313E+05 -1.133966E+05  1.200260E+05 -3.970467E-12 -1.720536E-11
        23  20 -3.672125E+05 -1.964158E+05 -1.127257E+05  1.266282E+05  1.389663E-11 -1.257315E-11
        23  21 -3.825877E+05 -1.671330E+05 -1.099441E+05  1.299838E+05 -5.955700E-12 -1.488925E-12
        23  22 -3.699344E+05 -2.293428E+05 -1.198554E+05  1.366427E+05 -5.293956E-12  2.117582E-11
        23  23 -3.918615E+05 -2.065640E+05 -1.196851E+05  1.439475E+05  1.323489E-11  0.000000E+00
        23  24 -4.091872E+05 -1.778430E+05 -1.174060E+05  1.481118E+05 -3.308722E-13  7.940934E-12
        23  25 -3.904396E+05 -2.408879E+05 -1.262655E+05  1.539155E+05 -1.588187E-11  0.000000E+00
        23  26 -4.145517E+05 -2.191144E+05 -1.267332E+05  1.617961E+05 -5.293956E-12  1.588187E-11
        23  27 -4.341468E+05 -1.915965E+05 -1.251487E+05  1.666595E+05 -3.308722E-12  4.632211E-11
        24   1 -3.094072E+05 -2.570961E+05 -1.133007E+05  7.493507E+04 -6.617445E-13  5.293956E-12
        24   2 -3.250764E+05 -2.444253E+05 -1.139003E+05  9.372988E+04  1.058791E-11 -4.632211E-12
        24   3 -3.391092E+05 -2.302981E+05 -1.138814E+05  1.116012E+05  1.067063E-11 -2.084495E-11
        24   4 -3.295219E+05 -2.645837E+05 -1.188211E+05  9.591083E+04  1.323489E-11 -1.588187E-11
        24   5 -3.458321E+05 -2.529354E+05 -1.197535E+05  1.131484E+05 -3.970467E-12  1.058791E-11
        24   6 -3.598919E+05 -2.397319E+05 -1.199247E+05  1.292320E+05  8.602678E-12 -2.911676E-11
        24   7 -3.481383E+05 -2.728430E+05 -1.241963E+05  1.171006E+05  5.293956E-12  0.000000E+00
        24   8 -3.658874E+05 -2.626211E+05 -1.257017E+05  1.325247E+05  1.058791E-11 -2.117582E-11
        24   9 -3.808190E+05 -2.507974E+05 -1.263233E+05  1.464922E+05  3.308722E-12 -2.646978E-12
        24  10 -3.094072E+05 -2.570961E+05 -1.133007E+05  7.493507E+04 -6.617445E-13  0.000000E+00
        24  11 -3.250764E+05 -2.444253E+05 -1.139003E+05  9.372988E+04  3.308722E-13 -3.970467E-12
        24  12 -3.391092E+05 -2.302981E+05 -1.138814E+05  1.116012E+05  3.308722E-13  1.654361E-13
        24  13 -3.295219E+05 -2.645837E+05 -1.188211E+05  9.591083E+04  0.000000E+00 -5.293956E-12
        24  14 -3.458321E+05 -2.529354E+05 -1.197535E+05  1.131484E+05  1.985233E-12  2.646978E-12
        24  15 -3.598919E+05 -2.397319E+05 -1.199247E+05  1.292320E+05  0.000000E+00  1.323489E-12
        24  16 -3.481383E+05 -2.728430E+05 -1.241963E+05  1.171006E+05 -1.323489E-12  1.323489E-12
        24  17 -3.658874E+05 -2.626211E+05 -1.257017E+05  1.325247E+05  0.000000E+00 -6.617445E-12
        24  18 -3.808190E+05 -2.507974E+05 -1.263233E+05  1.464922E+05  1.158053E-12 -8.271806E-13
        24  19 -3.094072E+05 -2.570961E+05 -1.133007E+05  7.493507E+04 -4.632211E-12 -5.293956E-12
        24  20 -3.250764E+05 -2.444253E+05 -1.139003E+05  9.372988E+04 -1.058791E-11  4.632211E-12
        24  21 -3.391092E+05 -2.302981E+05 -1.138814E+05  1.116012E+05 -8.271806E-14  1.025704E-11
        24  22 -3.295219E+05 -2.645837E+05 -1.188211E+05  9.591083E+04 -7.940934E-12 -5.293956E-12
        24  23 -3.458321E+05 -2.529354E+05 -1.197535E+05  1.131484E+05  3.970467E-12 -1.058791E-11
        24  24 -3.598919E+05 -2.397319E+05 -1.199247E+05  1.292320E+05  1.985233E-12  2.911676E-11
        24  25 -3.481383E+05 -2.728430E+05 -1.241963E+05  1.171006E+05  0.000000E+00  0.000000E+00
        24  26 -3.658874E+05 -2.626211E+05 -1.257017E+05  1.325247E+05  0.000000E+00  0.000000E+00
        24  27 -3.808190E+05 -2.507974E+05 -1.263233E+05  1.464922E+05 -3.308722E-12 -7.940934E-12
        25   1 -4.119404E+05 -1.865009E+05 -1.196883E+05  1.636545E+05  4.466775E-12 -5.459392E-12
        25   2 -4.455369E+05 -1.824192E+05 -1.255912E+05  1.659788E+05  4.714929E-12 -1.158053E-12
        25   3 -4.738965E+05 -1.771224E+05 -1.302038E+05  1.679608E+05  5.459392E-12 -2.254067E-12
        25   4 -4.154098E+05 -1.792100E+05 -1.189240E+05  1.711060E+05 -1.985233E-12  0.000000E+00
        25   5 -4.522706E+05 -1.741134E+05 -1.252768E+05  1.706116E+05 -1.323489E-12  1.985233E-12
        25   6 -4.846266E+05 -1.679499E+05 -1.305153E+05  1.697906E+05  3.805031E-12 -2.150670E-12
        25   7 -4.196032E+05 -1.705523E+05 -1.180311E+05  1.793274E+05 -1.985233E-12  0.000000E+00
        25   8 -4.598514E+05 -1.646411E+05 -1.248985E+05  1.763529E+05  2.316106E-12  4.632211E-12
        25   9 -4.962386E+05 -1.577994E+05 -1.308076E+05  1.730771E+05  2.316106E-12  3.639595E-12
        25  10 -4.119404E+05 -1.865009E+05 -1.196883E+05  1.636545E+05  0.000000E+00 -1.654361E-13
        25  11 -4.455369E+05 -1.824192E+05 -1.255912E+05  1.659788E+05 -4.135903E-13  3.308722E-13
        25  12 -4.738965E+05 -1.771224E+05 -1.302038E+05  1.679608E+05 -1.861156E-13 -1.240771E-13
        25  13 -4.154098E+05 -1.792100E+05 -1.189240E+05  1.711060E+05 -3.308722E-13  0.000000E+00
        25  14 -4.522706E+05 -1.741134E+05 -1.252768E+05  1.706116E+05  1.323489E-12 -6.617445E-13
        25  15 -4.846266E+05 -1.679499E+05 -1.305153E+05  1.697906E+05 -2.067952E-13  0.000000E+00
        25  16 -4.196032E+05 -1.705523E+05 -1.180311E+05  1.793274E+05 -3.308722E-13  1.654361E-13
        25  17 -4.598514E+05 -1.646411E+05 -1.248985E+05  1.763529E+05 -5.790264E-13 -1.654361E-13
        25  18 -4.962386E+05 -1.577994E+05 -1.308076E+05  1.730771E+05  8.271806E-14 -2.688337E-13
        25  19 -4.119404E+05 -1.865009E+05 -1.196883E+05  1.636545E+05 -1.819797E-12  5.459392E-12
        25  20 -4.455369E+05 -1.824192E+05 -1.255912E+05  1.659788E+05  5.790264E-13 -4.135903E-12
        25  21 -4.738965E+05 -1.771224E+05 -1.302038E+05  1.679608E+05 -2.812414E-12 -3.929108E-13
        25  22 -4.154098E+05 -1.792100E+05 -1.189240E+05  1.711060E+05 -6.617445E-13  0.000000E+00
        25  23 -4.522706E+05 -1.741134E+05 -1.252768E+05  1.706116E+05  1.323489E-12  6.617445E-13
        25  24 -4.846266E+05 -1.679499E+05 -1.305153E+05  1.697906E+05 -1.158053E-12 -4.963084E-13
        25  25 -4.196032E+05 -1.705523E+05 -1.180311E+05  1.793274E+05 -6.617445E-13  0.000000E+00
        25  26 -4.598514E+05 -1.646411E+05 -1.248985E+05  1.763529E+05 -9.926167E-13  3.308722E-12
        25  27 -4.962386E+05 -1.577994E+05 -1.308076E+05  1.730771E+05 -2.316106E-12 -9.926167E-13
        26   1 -4.894330E+05 -1.752222E+05 -1.329310E+05  1.689598E+05  5.624828E-12  0.000000E+00
        26   2 -5.147778E+05 -1.739440E+05 -1.377444E+05  1.694844E+05  4.549493E-12 -1.075335E-12
        26   3 -5.364019E+05 -1.717099E+05 -1.416224E+05  1.702500E+05  2.088631E-12  2.812414E-12
        26   4 -5.024527E+05 -1.667760E+05 -1.338458E+05  1.704831E+05  4.632211E-12 -6.617445E-13
        26   5 -5.292048E+05 -1.657990E+05 -1.390008E+05  1.702149E+05 -1.654361E-12 -3.639595E-12
        26   6 -5.526998E+05 -1.639871E+05 -1.433374E+05  1.701618E+05  2.481542E-12  4.797648E-12
        26   7 -5.158373E+05 -1.595848E+05 -1.350844E+05  1.722037E+05 -1.323489E-12 -1.985233E-12
        26   8 -5.440621E+05 -1.589543E+05 -1.406033E+05  1.712714E+05 -6.617445E-13  1.323489E-12
        26   9 -5.694346E+05 -1.575956E+05 -1.454060E+05  1.705363E+05 -8.271806E-13  2.398824E-12
        26  10 -4.894330E+05 -1.752222E+05 -1.329310E+05  1.689598E+05  0.000000E+00 -1.654361E-13
        26  11 -5.147778E+05 -1.739440E+05 -1.377444E+05  1.694844E+05 -7.444626E-13 -8.271806E-14
        26  12 -5.364019E+05 -1.717099E+05 -1.416224E+05  1.702500E+05  4.963084E-13 -8.271806E-14
        26  13 -5.024527E+05 -1.667760E+05 -1.338458E+05  1.704831E+05  0.000000E+00 -6.617445E-13
        26  14 -5.292048E+05 -1.657990E+05 -1.390008E+05  1.702149E+05  0.000000E+00 -3.308722E-13
        26  15 -5.526998E+05 -1.639871E+05 -1.433374E+05  1.701618E+05 -4.963084E-13  1.654361E-13
        26  16 -5.158373E+05 -1.595848E+05 -1.350844E+05  1.722037E+05  0.000000E+00  1.654361E-13
        26  17 -5.440621E+05 -1.589543E+05 -1.406033E+05  1.712714E+05  2.481542E-13  2.481542E-13
        26  18 -5.694346E+05 -1.575956E+05 -1.454060E+05  1.705363E+05  8.271806E-14 -2.067952E-13
        26  19 -4.894330E+05 -1.752222E+05 -1.329310E+05  1.689598E+05 -2.977850E-12  0.000000E+00
        26  20 -5.147778E+05 -1.739440E+05 -1.377444E+05  1.694844E+05 -1.902515E-12  1.075335E-12
        26  21 -5.364019E+05 -1.717099E+05 -1.416224E+05  1.702500E+05 -4.735609E-12 -1.654361E-13
        26  22 -5.024527E+05 -1.667760E+05 -1.338458E+05  1.704831E+05  6.617445E-13  6.617445E-13
        26  23 -5.292048E+05 -1.657990E+05 -1.390008E+05  1.702149E+05 -9.926167E-13  2.316106E-12
        26  24 -5.526998E+05 -1.639871E+05 -1.433374E+05  1.701618E+05  1.654361E-13 -8.271806E-13
        26  25 -5.158373E+05 -1.595848E+05 -1.350844E+05  1.722037E+05  0.000000E+00  6.617445E-13
        26  26 -5.440621E+05 -1.589543E+05 -1.406033E+05  1.712714E+05 -1.985233E-12 -1.323489E-12
        26  27 -5.694346E+05 -1.575956E+05 -1.454060E+05  1.705363E+05  8.271806E-13 -2.398824E-12
        27   1 -5.227822E+05 -1.543326E+05 -1.354230E+05  1.738264E+05  4.963084E-13  0.000000E+00
        27   2 -5.538931E+05 -1.554871E+05 -1.418760E+05  1.712254E+05  1.985233E-12  9.926167E-13
        27   3 -5.792595E+05 -1.550839E+05 -1.468687E+05  1.703169E+05  1.323489E-12 -1.323489E-12
        27   4 -5.380275E+05 -1.462788E+05 -1.368613E+05  1.720685E+05  1.654361E-13  1.654361E-13
        27   5 -5.697610E+05 -1.506569E+05 -1.440836E+05  1.690780E+05  0.000000E+00  3.308722E-13
        27   6 -5.964246E+05 -1.537088E+05 -1.500267E+05  1.676037E+05  1.323489E-12  6.617445E-13
        27   7 -5.536820E+05 -1.407633E+05 -1.388891E+05  1.701765E+05  8.271806E-14  7.237830E-14
        27   8 -5.861221E+05 -1.481079E+05 -1.468460E+05  1.669012E+05 -1.654361E-13 -1.240771E-13
        27   9 -6.140930E+05 -1.543239E+05 -1.536834E+05  1.649888E+05  1.654361E-13  8.271806E-14
        27  10 -5.227822E+05 -1.543326E+05 -1.354230E+05  1.738264E+05  0.000000E+00  8.271806E-14
        27  11 -5.538931E+05 -1.554871E+05 -1.418760E+05  1.712254E+05  8.271806E-14  8.271806E-14
        27  12 -5.792595E+05 -1.550839E+05 -1.468687E+05  1.703169E+05  2.067952E-14  4.135903E-14
        27  13 -5.380275E+05 -1.462788E+05 -1.368613E+05  1.720685E+05 -1.654361E-13  0.000000E+00
        27  14 -5.697610E+05 -1.506569E+05 -1.440836E+05  1.690780E+05  0.000000E+00 -1.654361E-13
        27  15 -5.964246E+05 -1.537088E+05 -1.500267E+05  1.676037E+05  1.240771E-13 -2.067952E-14
        27  16 -5.536820E+05 -1.407633E+05 -1.388891E+05  1.701765E+05  0.000000E+00  0.000000E+00
        27  17 -5.861221E+05 -1.481079E+05 -1.468460E+05  1.669012E+05 -8.271806E-14  0.000000E+00
        27  18 -6.140930E+05 -1.543239E+05 -1.536834E+05  1.649888E+05  2.067952E-14  4.135903E-14
        27  19 -5.227822E+05 -1.543326E+05 -1.354230E+05  1.738264E+05 -4.963084E-13  0.000000E+00
        27  20 -5.538931E+05 -1.554871E+05 -1.418760E+05  1.712254E+05 -1.985233E-12 -9.926167E-13
        27  21 -5.792595E+05 -1.550839E+05 -1.468687E+05  1.703169E+05 -1.323489E-12  1.323489E-12
        27  22 -5.380275E+05 -1.462788E+05 -1.368613E+05  1.720685E+05 -8.271806E-13 -1.654361E-13
        27  23 -5.697610E+05 -1.506569E+05 -1.440836E+05  1.690780E+05  0.000000E+00  3.308722E-13
        27  24 -5.964246E+05 -1.537088E+05 -1.500267E+05  1.676037E+05  0.000000E+00 -1.323489E-12
        27  25 -5.536820E+05 -1.407633E+05 -1.388891E+05  1.701765E+05 -8.271806E-14 -7.237830E-14
        27  26 -5.861221E+05 -1.481079E+05 -1.468460E+05  1.669012E+05  3.308722E-13  1.240771E-13
        27  27 -6.140930E+05 -1.543239E+05 -1.536834E+05  1.649888E+05  1.654361E-13 -8.271806E-14
        28   1 -4.239104E+05 -1.625161E+05 -1.172853E+05  1.849147E+05  0.000000E+00  4.963084E-13
        28   2 -4.659710E+05 -1.589044E+05 -1.249751E+05  1.784154E+05  6.617445E-13 -6.617445E-13
        28   3 -5.028137E+05 -1.537366E+05 -1.313101E+05  1.753457E+05  2.646978E-12  1.323489E-12
        28   4 -4.389227E+05 -1.435694E+05 -1.164984E+05  1.905492E+05 -7.444626E-13  1.654361E-13
        28   5 -4.812483E+05 -1.467208E+05 -1.255938E+05  1.812962E+05  0.000000E+00 -6.617445E-13
        28   6 -5.189552E+05 -1.486002E+05 -1.335111E+05  1.750393E+05  6.617445E-13 -6.617445E-13
        28   7 -4.522640E+05 -1.210924E+05 -1.146713E+05  1.949073E+05  1.033976E-13 -5.169879E-14
        28   8 -4.949276E+05 -1.301896E+05 -1.250234E+05  1.830401E+05  4.135903E-13 -1.654361E-13
        28   9 -5.335085E+05 -1.382443E+05 -1.343506E+05  1.737866E+05  3.308722E-13 -1.654361E-13
        28  10 -4.239104E+05 -1.625161E+05 -1.172853E+05  1.849147E+05  8.271806E-14  0.000000E+00
        28  11 -4.659710E+05 -1.589044E+05 -1.249751E+05  1.784154E+05  1.654361E-13 -4.135903E-14
        28  12 -5.028137E+05 -1.537366E+05 -1.313101E+05  1.753457E+05  0.000000E+00  9.305782E-14
        28  13 -4.389227E+05 -1.435694E+05 -1.164984E+05  1.905492E+05  0.000000E+00  0.000000E+00
        28  14 -4.812483E+05 -1.467208E+05 -1.255938E+05  1.812962E+05 -1.654361E-13 -8.271806E-14
        28  15 -5.189552E+05 -1.486002E+05 -1.335111E+05  1.750393E+05  2.481542E-13 -8.271806E-14
        28  16 -4.522640E+05 -1.210924E+05 -1.146713E+05  1.949073E+05 -8.271806E-14  0.000000E+00
        28  17 -4.949276E+05 -1.301896E+05 -1.250234E+05  1.830401E+05  0.000000E+00  8.271806E-14
        28  18 -5.335085E+05 -1.382443E+05 -1.343506E+05  1.737866E+05  2.067952E-14 -1.033976E-14
        28  19 -4.239104E+05 -1.625161E+05 -1.172853E+05  1.849147E+05  0.000000E+00  8.271806E-13
        28  20 -4.659710E+05 -1.589044E+05 -1.249751E+05  1.784154E+05 -6.617445E-13 -6.617445E-13
        28  21 -5.028137E+05 -1.537366E+05 -1.313101E+05  1.753457E+05  0.000000E+00  0.000000E+00
        28  22 -4.389227E+05 -1.435694E+05 -1.164984E+05  1.905492E+05 -5.790264E-13 -8.271806E-13
        28  23 -4.812483E+05 -1.467208E+05 -1.255938E+05  1.812962E+05  6.617445E-13 -6.617445E-13
        28  24 -5.189552E+05 -1.486002E+05 -1.335111E+05  1.750393E+05 -6.617445E-13  6.617445E-13
        28  25 -4.522640E+05 -1.210924E+05 -1.146713E+05  1.949073E+05 -1.033976E-13  2.171349E-13
        28  26 -4.949276E+05 -1.301896E+05 -1.250234E+05  1.830401E+05 -2.481542E-13  1.654361E-13
        28  27 -5.335085E+05 -1.382443E+05 -1.343506E+05  1.737866E+05 -4.963084E-13 -1.654361E-13
        29   1 -5.488902E+05 -1.704310E+05 -1.438642E+05  1.709971E+05  2.481542E-12 -5.128520E-12
        29   2 -5.704742E+05 -1.698029E+05 -1.480554E+05  1.707721E+05  3.226004E-12  5.004443E-12
        29   3 -5.880354E+05 -1.678332E+05 -1.511737E+05  1.714394E+05 -3.308722E-12 -1.757759E-12
        29   4 -5.657118E+05 -1.633967E+05 -1.458217E+05  1.706102E+05  6.617445E-13 -2.977850E-12
        29   5 -5.868862E+05 -1.635839E+05 -1.500940E+05  1.702752E+05 -1.654361E-12  9.926167E-13
        29   6 -6.045257E+05 -1.626035E+05 -1.534259E+05  1.707560E+05 -1.406207E-12 -1.737079E-12
        29   7 -5.830190E+05 -1.584788E+05 -1.482996E+05  1.699734E+05 -1.323489E-12  6.617445E-13
        29   8 -6.038812E+05 -1.596671E+05 -1.527096E+05  1.695910E+05  3.970467E-12 -9.926167E-13
        29   9 -6.216409E+05 -1.598652E+05 -1.563012E+05  1.699686E+05  3.308722E-13 -1.654361E-13
        29  10 -5.488902E+05 -1.704310E+05 -1.438642E+05  1.709971E+05  1.654361E-13  3.308722E-13
        29  11 -5.704742E+05 -1.698029E+05 -1.480554E+05  1.707721E+05  1.654361E-13 -6.617445E-13
        29  12 -5.880354E+05 -1.678332E+05 -1.511737E+05  1.714394E+05  4.963084E-13 -1.447566E-13
        29  13 -5.657118E+05 -1.633967E+05 -1.458217E+05  1.706102E+05 -6.617445E-13  6.617445E-13
        29  14 -5.868862E+05 -1.635839E+05 -1.500940E+05  1.702752E+05 -3.308722E-13  6.617445E-13
        29  15 -6.045257E+05 -1.626035E+05 -1.534259E+05  1.707560E+05  1.654361E-13  3.722313E-13
        29  16 -5.830190E+05 -1.584788E+05 -1.482996E+05  1.699734E+05 -4.963084E-13 -1.654361E-13
        29  17 -6.038812E+05 -1.596671E+05 -1.527096E+05  1.695910E+05  3.308722E-13  4.135903E-13
        29  18 -6.216409E+05 -1.598652E+05 -1.563012E+05  1.699686E+05 -2.067952E-13 -4.342698E-13
        29  19 -5.488902E+05 -1.704310E+05 -1.438642E+05  1.709971E+05  1.654361E-13  2.481542E-12
        29  20 -5.704742E+05 -1.698029E+05 -1.480554E+05  1.707721E+05  4.714929E-12 -1.033976E-12
        29  21 -5.880354E+05 -1.678332E+05 -1.511737E+05  1.714394E+05  3.308722E-12  4.404737E-12
        29  22 -5.657118E+05 -1.633967E+05 -1.458217E+05  1.706102E+05 -3.308722E-12  3.308722E-13
        29  23 -5.868862E+05 -1.635839E+05 -1.500940E+05  1.702752E+05  1.654361E-12 -9.926167E-13
        29  24 -6.045257E+05 -1.626035E+05 -1.534259E+05  1.707560E+05  1.406207E-12 -9.098987E-13
        29  25 -5.830190E+05 -1.584788E+05 -1.482996E+05  1.699734E+05  1.323489E-12  6.617445E-13
        29  26 -6.038812E+05 -1.596671E+05 -1.527096E+05  1.695910E+05 -2.646978E-12  9.926167E-13
        29  27 -6.216409E+05 -1.598652E+05 -1.563012E+05  1.699686E+05 -3.308722E-13 -2.481542E-12
        30   1 -5.967941E+05 -1.670068E+05 -1.527602E+05  1.718810E+05  3.308722E-12  2.398824E-12
        30   2 -6.107977E+05 -1.677428E+05 -1.557081E+05  1.714560E+05  1.985233E-12 -1.613002E-12
        30   3 -6.201652E+05 -1.669395E+05 -1.574209E+05  1.720501E+05 -2.667657E-12  1.602662E-12
        30   4 -6.129400E+05 -1.624877E+05 -1.550855E+05  1.712352E+05  1.985233E-12  3.308722E-13
        30   5 -6.251622E+05 -1.635823E+05 -1.577489E+05  1.711081E+05  3.308722E-13  1.323489E-12
        30   6 -6.330579E+05 -1.632613E+05 -1.592639E+05  1.719537E+05  1.488925E-12  4.549493E-13
        30   7 -6.299245E+05 -1.603781E+05 -1.580605E+05  1.698524E+05 -1.323489E-12 -3.308722E-12
        30   8 -6.405726E+05 -1.621027E+05 -1.605351E+05  1.699348E+05 -6.617445E-13 -6.617445E-13
        30   9 -6.471882E+05 -1.625659E+05 -1.619508E+05  1.709346E+05  8.271806E-13 -4.135903E-13
        30  10 -5.967941E+05 -1.670068E+05 -1.527602E+05  1.718810E+05  0.000000E+00  1.654361E-13
        30  11 -6.107977E+05 -1.677428E+05 -1.557081E+05  1.714560E+05  4.963084E-13 -2.481542E-13
        30  12 -6.201652E+05 -1.669395E+05 -1.574209E+05  1.720501E+05 -2.067952E-14 -4.135903E-14
        30  13 -6.129400E+05 -1.624877E+05 -1.550855E+05  1.712352E+05  0.000000E+00  0.000000E+00
        30  14 -6.251622E+05 -1.635823E+05 -1.577489E+05  1.711081E+05 -6.617445E-13 -4.963084E-13
        30  15 -6.330579E+05 -1.632613E+05 -1.592639E+05  1.719537E+05  3.308722E-13 -8.271806E-14
        30  16 -6.299245E+05 -1.603781E+05 -1.580605E+05  1.698524E+05  1.654361E-13  1.654361E-13
        30  17 -6.405726E+05 -1.621027E+05 -1.605351E+05  1.699348E+05  0.000000E+00 -8.271806E-14
        30  18 -6.471882E+05 -1.625659E+05 -1.619508E+05  1.709346E+05 -1.861156E-13  2.067952E-14
        30  19 -5.967941E+05 -1.670068E+05 -1.527602E+05  1.718810E+05 -3.308722E-12 -1.075335E-12
        30  20 -6.107977E+05 -1.677428E+05 -1.557081E+05  1.714560E+05  6.617445E-13 -1.033976E-12
        30  21 -6.201652E+05 -1.669395E+05 -1.574209E+05  1.720501E+05  2.667657E-12 -1.602662E-12
        30  22 -6.129400E+05 -1.624877E+05 -1.550855E+05  1.712352E+05 -6.617445E-13 -2.977850E-12
        30  23 -6.251622E+05 -1.635823E+05 -1.577489E+05  1.711081E+05  2.316106E-12 -3.970467E-12
        30  24 -6.330579E+05 -1.632613E+05 -1.592639E+05  1.719537E+05  1.158053E-12 -4.549493E-13
        30  25 -6.299245E+05 -1.603781E+05 -1.580605E+05  1.698524E+05  0.000000E+00 -6.617445E-13
        30  26 -6.405726E+05 -1.621027E+05 -1.605351E+05  1.699348E+05  1.985233E-12  0.000000E+00
        30  27 -6.471882E+05 -1.625659E+05 -1.619508E+05  1.709346E+05 -8.271806E-13 -2.481542E-13
        31   1 -6.390682E+05 -1.601509E+05 -1.598438E+05  1.691884E+05  1.654361E-12 -3.308722E-13
        31   2 -6.497823E+05 -1.620302E+05 -1.623625E+05  1.698373E+05 -9.926167E-13 -3.308722E-13
        31   3 -6.542920E+05 -1.623239E+05 -1.633232E+05  1.708680E+05 -6.617445E-13  0.000000E+00
        31   4 -6.544260E+05 -1.622597E+05 -1.633371E+05  1.685433E+05  9.098987E-13 -1.240771E-13
        31   5 -6.633129E+05 -1.637904E+05 -1.654206E+05  1.697295E+05  3.308722E-13  1.654361E-13
        31   6 -6.665370E+05 -1.638466E+05 -1.660767E+05  1.714404E+05  0.000000E+00  0.000000E+00
        31   7 -6.706689E+05 -1.670560E+05 -1.675450E+05  1.672026E+05  6.203855E-14 -2.067952E-14
        31   8 -6.779223E+05 -1.686700E+05 -1.693185E+05  1.688673E+05 -2.481542E-13 -1.240771E-13
        31   9 -6.800058E+05 -1.689723E+05 -1.697956E+05  1.711693E+05  8.271806E-14 -8.271806E-14
        31  10 -6.390682E+05 -1.601509E+05 -1.598438E+05  1.691884E+05  0.000000E+00 -4.135903E-14
        31  11 -6.497823E+05 -1.620302E+05 -1.623625E+05  1.698373E+05 -2.067952E-13 -6.203855E-14
        31  12 -6.542920E+05 -1.623239E+05 -1.633232E+05  1.708680E+05  6.203855E-14 -1.033976E-13
        31  13 -6.544260E+05 -1.622597E+05 -1.633371E+05  1.685433E+05 -1.654361E-13  0.000000E+00
        31  14 -6.633129E+05 -1.637904E+05 -1.654206E+05  1.697295E+05 -2.481542E-13 -4.135903E-13
        31  15 -6.665370E+05 -1.638466E+05 -1.660767E+05  1.714404E+05  0.000000E+00  4.135903E-14
        31  16 -6.706689E+05 -1.670560E+05 -1.675450E+05  1.672026E+05  0.000000E+00  0.000000E+00
        31  17 -6.779223E+05 -1.686700E+05 -1.693185E+05  1.688673E+05 -4.135903E-14  2.067952E-14
        31  18 -6.800058E+05 -1.689723E+05 -1.697956E+05  1.711693E+05 -3.101927E-14 -1.033976E-14
        31  19 -6.390682E+05 -1.601509E+05 -1.598438E+05  1.691884E+05 -3.308722E-13 -3.308722E-13
        31  20 -6.497823E+05 -1.620302E+05 -1.623625E+05  1.698373E+05 -3.308722E-13 -3.308722E-13
        31  21 -6.542920E+05 -1.623239E+05 -1.633232E+05  1.708680E+05  0.000000E+00  0.000000E+00
        31  22 -6.544260E+05 -1.622597E+05 -1.633371E+05  1.685433E+05  4.135903E-13 -2.067952E-13
        31  23 -6.633129E+05 -1.637904E+05 -1.654206E+05  1.697295E+05 -3.308722E-13 -1.654361E-13
        31  24 -6.665370E+05 -1.638466E+05 -1.660767E+05  1.714404E+05  0.000000E+00  0.000000E+00
        31  25 -6.706689E+05 -1.670560E+05 -1.675450E+05  1.672026E+05  1.033976E-13  2.067952E-14
        31  26 -6.779223E+05 -1.686700E+05 -1.693185E+05  1.688673E+05 -8.271806E-14  1.240771E-13
        31  27 -6.800058E+05 -1.689723E+05 -1.697956E+05  1.711693E+05 -8.271806E-14  0.000000E+00
        32   1 -5.929504E+05 -1.561632E+05 -1.498227E+05  1.697613E+05  1.654361E-12 -3.226004E-12
        32   2 -6.149902E+05 -1.584064E+05 -1.546793E+05  1.689823E+05  0.000000E+00  9.926167E-13
        32   3 -6.312800E+05 -1.590161E+05 -1.580592E+05  1.691484E+05  1.323489E-12 -1.323489E-12
        32   4 -6.100866E+05 -1.550334E+05 -1.530240E+05  1.674174E+05  8.271806E-13 -1.240771E-13
        32   5 -6.311760E+05 -1.582662E+05 -1.578884E+05  1.671025E+05 -1.323489E-12 -1.654361E-13
        32   6 -6.471447E+05 -1.600879E+05 -1.614465E+05  1.677928E+05  6.617445E-13 -9.926167E-13
        32   7 -6.279723E+05 -1.571662E+05 -1.570277E+05  1.646947E+05 -2.067952E-13 -1.033976E-14
        32   8 -6.482803E+05 -1.617467E+05 -1.620054E+05  1.648926E+05  3.308722E-13 -4.135903E-14
        32   9 -6.640422E+05 -1.651582E+05 -1.658401E+05  1.661549E+05 -1.654361E-13  1.654361E-13
        32  10 -5.929504E+05 -1.561632E+05 -1.498227E+05  1.697613E+05 -8.271806E-14  8.271806E-14
        32  11 -6.149902E+05 -1.584064E+05 -1.546793E+05  1.689823E+05  4.135903E-14  8.271806E-14
        32  12 -6.312800E+05 -1.590161E+05 -1.580592E+05  1.691484E+05  1.137373E-13 -1.033976E-14
        32  13 -6.100866E+05 -1.550334E+05 -1.530240E+05  1.674174E+05  0.000000E+00  0.000000E+00
        32  14 -6.311760E+05 -1.582662E+05 -1.578884E+05  1.671025E+05  1.654361E-13  8.271806E-14
        32  15 -6.471447E+05 -1.600879E+05 -1.614465E+05  1.677928E+05 -1.033976E-13  8.271806E-14
        32  16 -6.279723E+05 -1.571662E+05 -1.570277E+05  1.646947E+05  8.271806E-14  0.000000E+00
        32  17 -6.482803E+05 -1.617467E+05 -1.620054E+05  1.648926E+05  0.000000E+00 -4.135903E-14
        32  18 -6.640422E+05 -1.651582E+05 -1.658401E+05  1.661549E+05  1.033976E-14  8.271806E-14
        32  19 -5.929504E+05 -1.561632E+05 -1.498227E+05  1.697613E+05 -1.654361E-12 -8.271806E-14
        32  20 -6.149902E+05 -1.584064E+05 -1.546793E+05  1.689823E+05  0.000000E+00  1.654361E-12
        32  21 -6.312800E+05 -1.590161E+05 -1.580592E+05  1.691484E+05 -1.323489E-12  6.617445E-13
        32  22 -6.100866E+05 -1.550334E+05 -1.530240E+05  1.674174E+05 -1.654361E-13  1.240771E-13
        32  23 -6.311760E+05 -1.582662E+05 -1.578884E+05  1.671025E+05  0.000000E+00 -4.963084E-13
        32  24 -6.471447E+05 -1.600879E+05 -1.614465E+05  1.677928E+05 -1.323489E-12  6.617445E-13
        32  25 -6.279723E+05 -1.571662E+05 -1.570277E+05  1.646947E+05  4.135903E-14  1.033976E-14
        32  26 -6.482803E+05 -1.617467E+05 -1.620054E+05  1.648926E+05  0.000000E+00  2.067952E-13
        32  27 -6.640422E+05 -1.651582E+05 -1.658401E+05  1.661549E+05 -1.654361E-13  8.271806E-14
        33   1 -4.445227E+05 -3.499405E+05 -1.588926E+05  2.849547E+05 -7.610062E-12  9.264423E-12
        33   2 -4.693295E+05 -3.164774E+05 -1.571614E+05  2.536759E+05 -4.301339E-12  3.474159E-12
        33   3 -5.002915E+05 -2.848924E+05 -1.570368E+05  2.237681E+05  1.033976E-12  4.053185E-12
        33   4 -4.558363E+05 -3.395344E+05 -1.590741E+05  2.872389E+05  5.293956E-12  3.970467E-12
        33   5 -4.819046E+05 -3.089848E+05 -1.581779E+05  2.604170E+05  2.646978E-12  4.632211E-12
        33   6 -5.120191E+05 -2.794481E+05 -1.582934E+05  2.343040E+05 -1.158053E-11  1.654361E-12
        33   7 -4.696567E+05 -3.375473E+05 -1.614408E+05  2.884386E+05 -1.058791E-11  5.293956E-12
        33   8 -4.969374E+05 -3.091439E+05 -1.612163E+05  2.654002E+05  0.000000E+00  2.646978E-12
        33   9 -5.262482E+05 -2.808577E+05 -1.614212E+05  2.423765E+05  3.308722E-13  3.308722E-13
        33  10 -4.445227E+05 -3.499405E+05 -1.588926E+05  2.849547E+05  3.308722E-13  0.000000E+00
        33  11 -4.693295E+05 -3.164774E+05 -1.571614E+05  2.536759E+05  0.000000E+00 -1.654361E-13
        33  12 -5.002915E+05 -2.848924E+05 -1.570368E+05  2.237681E+05 -4.963084E-13  3.308722E-13
        33  13 -4.558363E+05 -3.395344E+05 -1.590741E+05  2.872389E+05  0.000000E+00 -6.617445E-13
        33  14 -4.819046E+05 -3.089848E+05 -1.581779E+05  2.604170E+05 -6.617445E-13  0.000000E+00
        33  15 -5.120191E+05 -2.794481E+05 -1.582934E+05  2.343040E+05 -9.926167E-13 -4.135903E-13
        33  16 -4.696567E+05 -3.375473E+05 -1.614408E+05  2.884386E+05  6.617445E-13  6.617445E-13
        33  17 -4.969374E+05 -3.091439E+05 -1.612163E+05  2.654002E+05  1.985233E-12  1.654361E-12
        33  18 -5.262482E+05 -2.808577E+05 -1.614212E+05  2.423765E+05 -9.098987E-13 -3.722313E-13
        33  19 -4.445227E+05 -3.499405E+05 -1.588926E+05  2.849547E+05  7.610062E-12 -9.264423E-12
        33  20 -4.693295E+05 -3.164774E+05 -1.571614E+05  2.536759E+05  4.301339E-12 -6.121137E-12
        33  21 -5.002915E+05 -2.848924E+05 -1.570368E+05  2.237681E+05  6.906958E-12 -4.053185E-12
        33  22 -4.558363E+05 -3.395344E+05 -1.590741E+05  2.872389E+05  0.000000E+00 -3.970467E-12
        33  23 -4.819046E+05 -3.089848E+05 -1.581779E+05  2.604170E+05  2.646978E-12 -4.632211E-12
        33  24 -5.120191E+05 -2.794481E+05 -1.582934E+05  2.343040E+05  9.926167E-13 -1.654361E-12
        33  25 -4.696567E+05 -3.375473E+05 -1.614408E+05  2.884386E+05  5.293956E-12 -2.646978E-12
        33  26 -4.969374E+05 -3.091439E+05 -1.612163E+05  2.654002E+05  1.058791E-11 -2.646978E-12
        33  27 -5.262482E+05 -2.808577E+05 -1.614212E+05  2.423765E+05 -5.624828E-12 -3.308722E-13
        34   1 -5.158315E+05 -2.612839E+05 -1.554231E+05  2.137257E+05 -3.970467E-12  6.286573E-12
        34   2 -5.385338E+05 -2.370724E+05 -1.551212E+05  2.020381E+05 -3.970467E-12 -1.819797E-12
        34   3 -5.638824E+05 -2.157714E+05 -1.559308E+05  1.926052E+05  3.680954E-12  3.474159E-12
        34   4 -5.226475E+05 -2.640019E+05 -1.573299E+05  2.229993E+05  7.940934E-12 -5.293956E-12
        34   5 -5.379085E+05 -2.411149E+05 -1.558047E+05  2.083530E+05 -5.293956E-12 -1.985233E-12
        34   6 -5.559207E+05 -2.210009E+05 -1.553843E+05  1.958922E+05  2.316106E-12 -9.926167E-13
        34   7 -5.358976E+05 -2.679187E+05 -1.607633E+05  2.299299E+05 -2.646978E-12  2.646978E-12
        34   8 -5.437988E+05 -2.461487E+05 -1.579895E+05  2.125168E+05  1.852885E-11 -5.293956E-12
        34   9 -5.545474E+05 -2.270277E+05 -1.563150E+05  1.972212E+05 -2.316106E-12 -5.293956E-12
        34  10 -5.158315E+05 -2.612839E+05 -1.554231E+05  2.137257E+05  6.617445E-13 -3.308722E-13
        34  11 -5.385338E+05 -2.370724E+05 -1.551212E+05  2.020381E+05  6.617445E-13 -1.654361E-13
        34  12 -5.638824E+05 -2.157714E+05 -1.559308E+05  1.926052E+05 -4.135903E-14  3.722313E-13
        34  13 -5.226475E+05 -2.640019E+05 -1.573299E+05  2.229993E+05  0.000000E+00  6.617445E-13
        34  14 -5.379085E+05 -2.411149E+05 -1.558047E+05  2.083530E+05  6.617445E-13 -1.323489E-12
        34  15 -5.559207E+05 -2.210009E+05 -1.553843E+05  1.958922E+05 -1.654361E-13 -1.654361E-13
        34  16 -5.358976E+05 -2.679187E+05 -1.607633E+05  2.299299E+05 -1.323489E-12 -3.308722E-13
        34  17 -5.437988E+05 -2.461487E+05 -1.579895E+05  2.125168E+05  0.000000E+00 -1.654361E-13
        34  18 -5.545474E+05 -2.270277E+05 -1.563150E+05  1.972212E+05 -4.549493E-13  4.549493E-13
        34  19 -5.158315E+05 -2.612839E+05 -1.554231E+05  2.137257E+05 -1.323489E-12 -3.639595E-12
        34  20 -5.385338E+05 -2.370724E+05 -1.551212E+05  2.020381E+05  3.970467E-12 -8.271806E-13
        34  21 -5.638824E+05 -2.157714E+05 -1.559308E+05  1.926052E+05 -1.033976E-12  1.819797E-12
        34  22 -5.226475E+05 -2.640019E+05 -1.573299E+05  2.229993E+05  2.646978E-12  0.000000E+00
        34  23 -5.379085E+05 -2.411149E+05 -1.558047E+05  2.083530E+05  0.000000E+00  1.985233E-12
        34  24 -5.559207E+05 -2.210009E+05 -1.553843E+05  1.958922E+05  2.977850E-12  3.639595E-12
        34  25 -5.358976E+05 -2.679187E+05 -1.607633E+05  2.299299E+05 -2.646978E-12 -2.646978E-12
        34  26 -5.437988E+05 -2.461487E+05 -1.579895E+05  2.125168E+05 -7.940934E-12  0.000000E+00
        34  27 -5.545474E+05 -2.270277E+05 -1.563150E+05  1.972212E+05  2.316106E-12  0.000000E+00
        35   1 -5.357991E+05 -2.677443E+05 -1.607087E+05  2.297907E+05 -1.058791E-11 -1.323489E-12
        35   2 -5.386879E+05 -2.476182E+05 -1.572612E+05  2.121829E+05  1.158053E-11  2.977850E-12
        35   3 -5.475997E+05 -2.309270E+05 -1.557053E+05  1.972332E+05  3.391441E-12  6.865599E-12
        35   4 -5.299376E+05 -2.703011E+05 -1.600478E+05  2.284612E+05 -2.646978E-12  2.646978E-12
        35   5 -5.268203E+05 -2.520554E+05 -1.557751E+05  2.104380E+05  6.617445E-12 -2.646978E-12
        35   6 -5.295343E+05 -2.370459E+05 -1.533160E+05  1.949294E+05  9.595295E-12 -3.308722E-12
        35   7 -5.260376E+05 -2.741655E+05 -1.600406E+05  2.261398E+05 -1.588187E-11  0.000000E+00
        35   8 -5.170918E+05 -2.576052E+05 -1.549394E+05  2.077326E+05  1.058791E-11  0.000000E+00
        35   9 -5.137961E+05 -2.440995E+05 -1.515791E+05  1.917061E+05 -4.632211E-12  6.617445E-12
        35  10 -5.357991E+05 -2.677443E+05 -1.607087E+05  2.297907E+05  0.000000E+00  6.617445E-13
        35  11 -5.386879E+05 -2.476182E+05 -1.572612E+05  2.121829E+05  3.308722E-13 -6.617445E-13
        35  12 -5.475997E+05 -2.309270E+05 -1.557053E+05  1.972332E+05  3.308722E-13  3.308722E-13
        35  13 -5.299376E+05 -2.703011E+05 -1.600478E+05  2.284612E+05  1.323489E-12  1.323489E-12
        35  14 -5.268203E+05 -2.520554E+05 -1.557751E+05  2.104380E+05 -6.617445E-13  1.323489E-12
        35  15 -5.295343E+05 -2.370459E+05 -1.533160E+05  1.949294E+05  1.158053E-12 -4.963084E-13
        35  16 -5.260376E+05 -2.741655E+05 -1.600406E+05  2.261398E+05  0.000000E+00  6.617445E-13
        35  17 -5.170918E+05 -2.576052E+05 -1.549394E+05  2.077326E+05  9.926167E-13  0.000000E+00
        35  18 -5.137961E+05 -2.440995E+05 -1.515791E+05  1.917061E+05  1.654361E-13  1.075335E-12
        35  19 -5.357991E+05 -2.677443E+05 -1.607087E+05  2.297907E+05  5.293956E-12 -6.617445E-12
        35  20 -5.386879E+05 -2.476182E+05 -1.572612E+05  2.121829E+05 -9.926167E-13  2.316106E-12
        35  21 -5.475997E+05 -2.309270E+05 -1.557053E+05  1.972332E+05 -3.391441E-12  1.075335E-12
        35  22 -5.299376E+05 -2.703011E+05 -1.600478E+05  2.284612E+05 -2.646978E-12  2.646978E-12
        35  23 -5.268203E+05 -2.520554E+05 -1.557751E+05  2.104380E+05 -6.617445E-12  2.646978E-12
        35  24 -5.295343E+05 -2.370459E+05 -1.533160E+05  1.949294E+05 -4.301339E-12  3.308722E-12
        35  25 -5.260376E+05 -2.741655E+05 -1.600406E+05  2.261398E+05  1.588187E-11  1.058791E-11
        35  26 -5.170918E+05 -2.576052E+05 -1.549394E+05  2.077326E+05 -1.058791E-11  0.000000E+00
        35  27 -5.137961E+05 -2.440995E+05 -1.515791E+05  1.917061E+05  4.632211E-12 -6.617445E-12
        36   1 -4.959211E+05 -3.481345E+05 -1.688111E+05  3.000653E+05 -3.970467E-12  5.955700E-12
        36   2 -5.104276E+05 -3.122717E+05 -1.645399E+05  2.695802E+05  6.286573E-12 -2.316106E-12
        36   3 -5.292220E+05 -2.811836E+05 -1.620811E+05  2.429950E+05 -1.025704E-11 -2.233388E-12
        36   4 -5.123898E+05 -3.436418E+05 -1.712063E+05  3.076880E+05 -1.058791E-11  0.000000E+00
        36   5 -5.173035E+05 -3.110722E+05 -1.656751E+05  2.730051E+05 -3.970467E-12  0.000000E+00
        36   6 -5.276942E+05 -2.834634E+05 -1.622315E+05  2.423915E+05  7.279189E-12  4.632211E-12
        36   7 -5.325839E+05 -3.393912E+05 -1.743950E+05  3.121282E+05  0.000000E+00  0.000000E+00
        36   8 -5.284541E+05 -3.102533E+05 -1.677415E+05  2.739991E+05  5.293956E-12  2.646978E-12
        36   9 -5.308032E+05 -2.861446E+05 -1.633896E+05  2.399855E+05  3.970467E-12 -1.985233E-12
        36  10 -4.959211E+05 -3.481345E+05 -1.688111E+05  3.000653E+05  6.617445E-13  6.617445E-13
        36  11 -5.104276E+05 -3.122717E+05 -1.645399E+05  2.695802E+05 -2.316106E-12  0.000000E+00
        36  12 -5.292220E+05 -2.811836E+05 -1.620811E+05  2.429950E+05  4.135903E-13 -4.963084E-13
        36  13 -5.123898E+05 -3.436418E+05 -1.712063E+05  3.076880E+05 -1.323489E-12  0.000000E+00
        36  14 -5.173035E+05 -3.110722E+05 -1.656751E+05  2.730051E+05  0.000000E+00  0.000000E+00
        36  15 -5.276942E+05 -2.834634E+05 -1.622315E+05  2.423915E+05 -3.308722E-13  0.000000E+00
        36  16 -5.325839E+05 -3.393912E+05 -1.743950E+05  3.121282E+05 -6.617445E-13  0.000000E+00
        36  17 -5.284541E+05 -3.102533E+05 -1.677415E+05  2.739991E+05  3.308722E-13  3.308722E-13
        36  18 -5.308032E+05 -2.861446E+05 -1.633896E+05  2.399855E+05 -3.308722E-13 -1.654361E-13
        36  19 -4.959211E+05 -3.481345E+05 -1.688111E+05  3.000653E+05  3.970467E-12 -3.308722E-12
        36  20 -5.104276E+05 -3.122717E+05 -1.645399E+05  2.695802E+05 -9.926167E-13  2.316106E-12
        36  21 -5.292220E+05 -2.811836E+05 -1.620811E+05  2.429950E+05  1.025704E-11 -5.707546E-12
        36  22 -5.123898E+05 -3.436418E+05 -1.712063E+05  3.076880E+05  1.058791E-11  5.293956E-12
        36  23 -5.173035E+05 -3.110722E+05 -1.656751E+05  2.730051E+05  3.970467E-12  0.000000E+00
        36  24 -5.276942E+05 -2.834634E+05 -1.622315E+05  2.423915E+05 -7.279189E-12  6.617445E-13
        36  25 -5.325839E+05 -3.393912E+05 -1.743950E+05  3.121282E+05  5.293956E-12  0.000000E+00
        36  26 -5.284541E+05 -3.102533E+05 -1.677415E+05  2.739991E+05  0.000000E+00 -2.646978E-12
        36  27 -5.308032E+05 -2.861446E+05 -1.633896E+05  2.399855E+05  1.323489E-12 -3.308722E-12
        37   1 -5.692708E+05 -1.448870E+05 -1.428316E+05  1.714206E+05 -4.963084E-13 -1.654361E-13
        37   2 -6.060661E+05 -1.531085E+05 -1.518349E+05  1.748248E+05 -4.963084E-13  8.271806E-14
        37   3 -6.381492E+05 -1.600794E+05 -1.596457E+05  1.766235E+05 -3.101927E-13 -2.067952E-14
        37   4 -5.732185E+05 -1.550521E+05 -1.456541E+05  1.726825E+05 -1.323489E-12  0.000000E+00
        37   5 -6.046702E+05 -1.584736E+05 -1.526288E+05  1.752691E+05  6.617445E-13  0.000000E+00
        37   6 -6.290923E+05 -1.597776E+05 -1.577740E+05  1.760371E+05 -5.790264E-13  0.000000E+00
        37   7 -5.815578E+05 -1.669202E+05 -1.496956E+05  1.718722E+05  0.000000E+00  0.000000E+00
        37   8 -6.090300E+05 -1.657042E+05 -1.549468E+05  1.728987E+05  0.000000E+00  9.926167E-13
        37   9 -6.271332E+05 -1.614267E+05 -1.577120E+05  1.717199E+05  3.308722E-13 -1.488925E-12
        37  10 -5.692708E+05 -1.448870E+05 -1.428316E+05  1.714206E+05  0.000000E+00  0.000000E+00
        37  11 -6.060661E+05 -1.531085E+05 -1.518349E+05  1.748248E+05 -1.240771E-13  0.000000E+00
        37  12 -6.381492E+05 -1.600794E+05 -1.596457E+05  1.766235E+05  2.067952E-14  2.067952E-14
        37  13 -5.732185E+05 -1.550521E+05 -1.456541E+05  1.726825E+05  0.000000E+00  1.654361E-13
        37  14 -6.046702E+05 -1.584736E+05 -1.526288E+05  1.752691E+05  2.481542E-13 -1.654361E-13
        37  15 -6.290923E+05 -1.597776E+05 -1.577740E+05  1.760371E+05 -1.033976E-13 -2.067952E-14
        37  16 -5.815578E+05 -1.669202E+05 -1.496956E+05  1.718722E+05  1.654361E-13 -8.271806E-14
        37  17 -6.090300E+05 -1.657042E+05 -1.549468E+05  1.728987E+05 -2.067952E-13 -1.240771E-13
        37  18 -6.271332E+05 -1.614267E+05 -1.577120E+05  1.717199E+05 -1.550964E-13 -1.654361E-13
        37  19 -5.692708E+05 -1.448870E+05 -1.428316E+05  1.714206E+05  4.963084E-13 -1.654361E-13
        37  20 -6.060661E+05 -1.531085E+05 -1.518349E+05  1.748248E+05  3.308722E-13 -8.271806E-14
        37  21 -6.381492E+05 -1.600794E+05 -1.596457E+05  1.766235E+05 -2.067952E-14  2.067952E-14
        37  22 -5.732185E+05 -1.550521E+05 -1.456541E+05  1.726825E+05  1.323489E-12 -6.617445E-13
        37  23 -6.046702E+05 -1.584736E+05 -1.526288E+05  1.752691E+05  1.323489E-12  0.000000E+00
        37  24 -6.290923E+05 -1.597776E+05 -1.577740E+05  1.760371E+05  5.790264E-13 -3.308722E-13
        37  25 -5.815578E+05 -1.669202E+05 -1.496956E+05  1.718722E+05 -1.323489E-12  0.000000E+00
        37  26 -6.090300E+05 -1.657042E+05 -1.549468E+05  1.728987E+05  0.000000E+00 -3.308722E-13
        37  27 -6.271332E+05 -1.614267E+05 -1.577120E+05  1.717199E+05 -3.308722E-13  8.271806E-13
        38   1 -6.528141E+05 -1.630104E+05 -1.631649E+05  1.759085E+05  0.000000E+00  8.271806E-14
        38   2 -6.671256E+05 -1.661322E+05 -1.666516E+05  1.751149E+05  0.000000E+00  3.722313E-13
        38   3 -6.772464E+05 -1.681509E+05 -1.690794E+05  1.730880E+05  2.481542E-13 -2.067952E-14
        38   4 -6.430285E+05 -1.612236E+05 -1.608504E+05  1.740184E+05  6.617445E-13  3.308722E-13
        38   5 -6.565834E+05 -1.628501E+05 -1.638867E+05  1.740223E+05  0.000000E+00  8.271806E-13
        38   6 -6.647105E+05 -1.629181E+05 -1.655257E+05  1.729573E+05 -7.444626E-13 -4.549493E-13
        38   7 -6.347672E+05 -1.621804E+05 -1.593895E+05  1.709945E+05  1.323489E-12  0.000000E+00
        38   8 -6.481080E+05 -1.629575E+05 -1.622131E+05  1.714214E+05  6.617445E-13 -1.323489E-12
        38   9 -6.547192E+05 -1.618152E+05 -1.633069E+05  1.708726E+05 -1.323489E-12  4.135903E-13
        38  10 -6.528141E+05 -1.630104E+05 -1.631649E+05  1.759085E+05  0.000000E+00  0.000000E+00
        38  11 -6.671256E+05 -1.661322E+05 -1.666516E+05  1.751149E+05  1.240771E-13  4.135903E-14
        38  12 -6.772464E+05 -1.681509E+05 -1.690794E+05  1.730880E+05  2.067952E-14  5.169879E-15
        38  13 -6.430285E+05 -1.612236E+05 -1.608504E+05  1.740184E+05  1.654361E-13  0.000000E+00
        38  14 -6.565834E+05 -1.628501E+05 -1.638867E+05  1.740223E+05  3.308722E-13  0.000000E+00
        38  15 -6.647105E+05 -1.629181E+05 -1.655257E+05  1.729573E+05  4.135903E-14 -2.067952E-14
        38  16 -6.347672E+05 -1.621804E+05 -1.593895E+05  1.709945E+05  0.000000E+00  4.135903E-14
        38  17 -6.481080E+05 -1.629575E+05 -1.622131E+05  1.714214E+05  0.000000E+00 -2.481542E-13
        38  18 -6.547192E+05 -1.618152E+05 -1.633069E+05  1.708726E+05  1.033976E-13 -1.550964E-14
        38  19 -6.528141E+05 -1.630104E+05 -1.631649E+05  1.759085E+05  0.000000E+00  8.271806E-14
        38  20 -6.671256E+05 -1.661322E+05 -1.666516E+05  1.751149E+05  3.308722E-13 -2.067952E-13
        38  21 -6.772464E+05 -1.681509E+05 -1.690794E+05  1.730880E+05  8.271806E-14  2.067952E-14
        38  22 -6.430285E+05 -1.612236E+05 -1.608504E+05  1.740184E+05 -6.617445E-13 -3.308722E-13
        38  23 -6.565834E+05 -1.628501E+05 -1.638867E+05  1.740223E+05 -6.617445E-13 -4.963084E-13
        38  24 -6.647105E+05 -1.629181E+05 -1.655257E+05  1.729573E+05  8.271806E-14 -2.067952E-13
        38  25 -6.347672E+05 -1.621804E+05 -1.593895E+05  1.709945E+05  0.000000E+00  0.000000E+00
        38  26 -6.481080E+05 -1.629575E+05 -1.622131E+05  1.714214E+05 -6.617445E-13  6.617445E-13
        38  27 -6.547192E+05 -1.618152E+05 -1.633069E+05  1.708726E+05  0.000000E+00  2.481542E-13
        39   1 -6.292062E+05 -1.657071E+05 -1.589827E+05  1.730185E+05 -6.617445E-13 -4.963084E-13
        39   2 -6.387041E+05 -1.645481E+05 -1.606504E+05  1.721139E+05  1.654361E-12  8.271806E-14
        39   3 -6.472590E+05 -1.629185E+05 -1.620355E+05  1.707474E+05  4.549493E-13 -6.824240E-13
        39   4 -6.167868E+05 -1.706158E+05 -1.574805E+05  1.746970E+05  1.323489E-12  6.617445E-13
        39   5 -6.256827E+05 -1.680674E+05 -1.587500E+05  1.737080E+05  6.617445E-13 -6.617445E-13
        39   6 -6.335050E+05 -1.647553E+05 -1.596521E+05  1.720703E+05  1.323489E-12 -5.790264E-13
        39   7 -6.058139E+05 -1.768314E+05 -1.565291E+05  1.754544E+05 -2.646978E-12 -1.323489E-12
        39   8 -6.139561E+05 -1.725326E+05 -1.572977E+05  1.744252E+05  1.323489E-12 -6.617445E-13
        39   9 -6.208146E+05 -1.669919E+05 -1.575613E+05  1.725349E+05  3.308722E-12  8.271806E-13
        39  10 -6.292062E+05 -1.657071E+05 -1.589827E+05  1.730185E+05  0.000000E+00  0.000000E+00
        39  11 -6.387041E+05 -1.645481E+05 -1.606504E+05  1.721139E+05  3.308722E-13 -1.654361E-13
        39  12 -6.472590E+05 -1.629185E+05 -1.620355E+05  1.707474E+05 -6.203855E-14  2.067952E-14
        39  13 -6.167868E+05 -1.706158E+05 -1.574805E+05  1.746970E+05  0.000000E+00 -3.308722E-13
        39  14 -6.256827E+05 -1.680674E+05 -1.587500E+05  1.737080E+05 -3.308722E-13  1.654361E-13
        39  15 -6.335050E+05 -1.647553E+05 -1.596521E+05  1.720703E+05 -2.481542E-13  6.203855E-13
        39  16 -6.058139E+05 -1.768314E+05 -1.565291E+05  1.754544E+05 -3.308722E-13  1.654361E-13
        39  17 -6.139561E+05 -1.725326E+05 -1.572977E+05  1.744252E+05 -3.308722E-13  1.654361E-13
        39  18 -6.208146E+05 -1.669919E+05 -1.575613E+05  1.725349E+05  6.203855E-14  0.000000E+00
        39  19 -6.292062E+05 -1.657071E+05 -1.589827E+05  1.730185E+05  1.985233E-12  4.963084E-13
        39  20 -6.387041E+05 -1.645481E+05 -1.606504E+05  1.721139E+05 -1.654361E-12  1.240771E-12
        39  21 -6.472590E+05 -1.629185E+05 -1.620355E+05  1.707474E+05 -4.549493E-13  2.067952E-14
        39  22 -6.167868E+05 -1.706158E+05 -1.574805E+05  1.746970E+05  1.323489E-12  1.985233E-12
        39  23 -6.256827E+05 -1.680674E+05 -1.587500E+05  1.737080E+05 -3.308722E-12 -1.985233E-12
        39  24 -6.335050E+05 -1.647553E+05 -1.596521E+05  1.720703E+05 -2.646978E-12  1.902515E-12
        39  25 -6.058139E+05 -1.768314E+05 -1.565291E+05  1.754544E+05  2.646978E-12  0.000000E+00
        39  26 -6.139561E+05 -1.725326E+05 -1.572977E+05  1.744252E+05 -1.323489E-12  6.617445E-13
        39  27 -6.208146E+05 -1.669919E+05 -1.575613E+05  1.725349E+05 -6.617445E-13 -2.150670E-12
        40   1 -5.805913E+05 -1.741908E+05 -1.509564E+05  1.723377E+05 -2.316106E-12  1.158053E-12
        40   2 -6.014210E+05 -1.701154E+05 -1.543073E+05  1.721495E+05 -2.316106E-12 -1.488925E-12
        40   3 -6.224267E+05 -1.661894E+05 -1.577232E+05  1.721457E+05 -9.512577E-13  6.203855E-13
        40   4 -5.759367E+05 -1.885157E+05 -1.528905E+05  1.787035E+05 -2.646978E-12  0.000000E+00
        40   5 -5.931763E+05 -1.820842E+05 -1.550521E+05  1.768808E+05  6.617445E-13  2.646978E-12
        40   6 -6.100801E+05 -1.753823E+05 -1.570925E+05  1.748238E+05  1.488925E-12  1.158053E-12
        40   7 -5.737767E+05 -2.012772E+05 -1.550108E+05  1.844548E+05  5.293956E-12  7.940934E-12
        40   8 -5.873828E+05 -1.913684E+05 -1.557502E+05  1.810713E+05  0.000000E+00  3.970467E-12
        40   9 -6.000542E+05 -1.804420E+05 -1.560992E+05  1.769893E+05 -2.646978E-12 -9.926167E-13
        40  10 -5.805913E+05 -1.741908E+05 -1.509564E+05  1.723377E+05  0.000000E+00  1.654361E-13
        40  11 -6.014210E+05 -1.701154E+05 -1.543073E+05  1.721495E+05  0.000000E+00  3.308722E-13
        40  12 -6.224267E+05 -1.661894E+05 -1.577232E+05  1.721457E+05  0.000000E+00  2.067952E-14
        40  13 -5.759367E+05 -1.885157E+05 -1.528905E+05  1.787035E+05 -6.617445E-13 -6.617445E-13
        40  14 -5.931763E+05 -1.820842E+05 -1.550521E+05  1.768808E+05  0.000000E+00  6.617445E-13
        40  15 -6.100801E+05 -1.753823E+05 -1.570925E+05  1.748238E+05 -4.963084E-13  4.135903E-13
        40  16 -5.737767E+05 -2.012772E+05 -1.550108E+05  1.844548E+05 -3.308722E-13 -1.654361E-13
        40  17 -5.873828E+05 -1.913684E+05 -1.557502E+05  1.810713E+05 -1.654361E-13 -2.481542E-13
        40  18 -6.000542E+05 -1.804420E+05 -1.560992E+05  1.769893E+05  0.000000E+00 -2.067952E-14
        40  19 -5.805913E+05 -1.741908E+05 -1.509564E+05  1.723377E+05 -1.654361E-12  1.654361E-13
        40  20 -6.014210E+05 -1.701154E+05 -1.543073E+05  1.721495E+05  9.926167E-13 -1.158053E-12
        40  21 -6.224267E+05 -1.661894E+05 -1.577232E+05  1.721457E+05 -1.695720E-12  7.031035E-13
        40  22 -5.759367E+05 -1.885157E+05 -1.528905E+05  1.787035E+05 -2.646978E-12 -1.323489E-12
        40  23 -5.931763E+05 -1.820842E+05 -1.550521E+05  1.768808E+05  1.985233E-12 -2.646978E-12
        40  24 -6.100801E+05 -1.753823E+05 -1.570925E+05  1.748238E+05 -4.135903E-12  1.654361E-13
        40  25 -5.737767E+05 -2.012772E+05 -1.550108E+05  1.844548E+05 -2.646978E-12 -2.646978E-12
        40  26 -5.873828E+05 -1.913684E+05 -1.557502E+05  1.810713E+05 -2.646978E-12 -1.323489E-12
        40  27 -6.000542E+05 -1.804420E+05 -1.560992E+05  1.769893E+05  2.646978E-12 -3.308722E-13
        41   1 -5.000449E+05 -2.484772E+05 -1.497044E+05  1.906726E+05 -3.970467E-12  3.970467E-12
        41   2 -4.891464E+05 -2.599823E+05 -1.498257E+05  1.934984E+05  3.308722E-13 -5.955700E-12
        41   3 -4.782980E+05 -2.694023E+05 -1.495401E+05  1.952854E+05  9.926167E-13  1.902515E-12
        41   4 -5.090832E+05 -2.618577E+05 -1.541882E+05  2.075347E+05 -1.323489E-11  2.646978E-12
        41   5 -4.998865E+05 -2.705345E+05 -1.540842E+05  2.102720E+05 -2.646978E-12 -2.117582E-11
        41   6 -4.912050E+05 -2.766878E+05 -1.535786E+05  2.117938E+05  1.158053E-11 -6.286573E-12
        41   7 -5.196530E+05 -2.772533E+05 -1.593813E+05  2.260883E+05  0.000000E+00  0.000000E+00
        41   8 -5.131985E+05 -2.837866E+05 -1.593970E+05  2.291350E+05 -2.646978E-12 -2.646978E-12
        41   9 -5.078806E+05 -2.875310E+05 -1.590823E+05  2.308827E+05  9.264423E-12 -3.970467E-12
        41  10 -5.000449E+05 -2.484772E+05 -1.497044E+05  1.906726E+05  0.000000E+00  0.000000E+00
        41  11 -4.891464E+05 -2.599823E+05 -1.498257E+05  1.934984E+05  9.926167E-13  3.308722E-13
        41  12 -4.782980E+05 -2.694023E+05 -1.495401E+05  1.952854E+05 -9.926167E-13  7.444626E-13
        41  13 -5.090832E+05 -2.618577E+05 -1.541882E+05  2.075347E+05 -1.323489E-12  0.000000E+00
        41  14 -4.998865E+05 -2.705345E+05 -1.540842E+05  2.102720E+05 -3.308722E-12  3.308722E-12
        41  15 -4.912050E+05 -2.766878E+05 -1.535786E+05  2.117938E+05 -1.158053E-12  8.271806E-13
        41  16 -5.196530E+05 -2.772533E+05 -1.593813E+05  2.260883E+05 -6.617445E-13  0.000000E+00
        41  17 -5.131985E+05 -2.837866E+05 -1.593970E+05  2.291350E+05  6.617445E-13 -6.617445E-13
        41  18 -5.078806E+05 -2.875310E+05 -1.590823E+05  2.308827E+05  8.271806E-14  0.000000E+00
        41  19 -5.000449E+05 -2.484772E+05 -1.497044E+05  1.906726E+05  9.264423E-12  1.323489E-12
        41  20 -4.891464E+05 -2.599823E+05 -1.498257E+05  1.934984E+05 -1.091878E-11  6.617445E-13
        41  21 -4.782980E+05 -2.694023E+05 -1.495401E+05  1.952854E+05 -9.926167E-13 -7.196471E-12
        41  22 -5.090832E+05 -2.618577E+05 -1.541882E+05  2.075347E+05 -2.646978E-12  2.646978E-12
        41  23 -4.998865E+05 -2.705345E+05 -1.540842E+05  2.102720E+05  2.646978E-12  0.000000E+00
        41  24 -4.912050E+05 -2.766878E+05 -1.535786E+05  2.117938E+05 -6.286573E-12  6.286573E-12
        41  25 -5.196530E+05 -2.772533E+05 -1.593813E+05  2.260883E+05  0.000000E+00  0.000000E+00
        41  26 -5.131985E+05 -2.837866E+05 -1.593970E+05  2.291350E+05  2.646978E-12 -2.646978E-12
        41  27 -5.078806E+05 -2.875310E+05 -1.590823E+05  2.308827E+05 -9.264423E-12  3.970467E-12
        42   1 -4.736951E+05 -2.737987E+05 -1.494987E+05  1.964381E+05  1.985233E-12  8.602678E-12
        42   2 -4.661498E+05 -2.780498E+05 -1.488399E+05  1.975019E+05 -1.654361E-12  3.970467E-12
        42   3 -4.585559E+05 -2.805004E+05 -1.478113E+05  1.978438E+05  7.775498E-12 -1.654361E-12
        42   4 -4.869453E+05 -2.798503E+05 -1.533591E+05  2.128796E+05  1.852885E-11 -1.588187E-11
        42   5 -4.794526E+05 -2.815267E+05 -1.521959E+05  2.127891E+05  6.617445E-12 -7.940934E-12
        42   6 -4.723878E+05 -2.810426E+05 -1.506861E+05  2.115961E+05  1.654361E-12  1.819797E-11
        42   7 -5.018767E+05 -2.877509E+05 -1.579255E+05  2.306009E+05  0.000000E+00  0.000000E+00
        42   8 -4.954649E+05 -2.875190E+05 -1.565968E+05  2.297465E+05  2.646978E-12 -1.852885E-11
        42   9 -4.901294E+05 -2.849612E+05 -1.550181E+05  2.275439E+05  1.522012E-11 -7.279189E-12
        42  10 -4.736951E+05 -2.737987E+05 -1.494987E+05  1.964381E+05  0.000000E+00  0.000000E+00
        42  11 -4.661498E+05 -2.780498E+05 -1.488399E+05  1.975019E+05 -1.985233E-12  0.000000E+00
        42  12 -4.585559E+05 -2.805004E+05 -1.478113E+05  1.978438E+05 -9.926167E-13 -6.617445E-13
        42  13 -4.869453E+05 -2.798503E+05 -1.533591E+05  2.128796E+05  1.323489E-12 -1.323489E-12
        42  14 -4.794526E+05 -2.815267E+05 -1.521959E+05  2.127891E+05  0.000000E+00  2.646978E-12
        42  15 -4.723878E+05 -2.810426E+05 -1.506861E+05  2.115961E+05  2.977850E-12  1.654361E-12
        42  16 -5.018767E+05 -2.877509E+05 -1.579255E+05  2.306009E+05 -6.617445E-13  6.617445E-13
        42  17 -4.954649E+05 -2.875190E+05 -1.565968E+05  2.297465E+05 -2.316106E-12  0.000000E+00
        42  18 -4.901294E+05 -2.849612E+05 -1.550181E+05  2.275439E+05 -1.075335E-12  1.075335E-12
        42  19 -4.736951E+05 -2.737987E+05 -1.494987E+05  1.964381E+05  3.308722E-12 -1.389663E-11
        42  20 -4.661498E+05 -2.780498E+05 -1.488399E+05  1.975019E+05 -8.933551E-12  6.617445E-12
        42  21 -4.585559E+05 -2.805004E+05 -1.478113E+05  1.978438E+05 -2.481542E-12  1.654361E-12
        42  22 -4.869453E+05 -2.798503E+05 -1.533591E+05  2.128796E+05 -7.940934E-12  5.293956E-12
        42  23 -4.794526E+05 -2.815267E+05 -1.521959E+05  2.127891E+05  3.970467E-12 -2.646978E-12
        42  24 -4.723878E+05 -2.810426E+05 -1.506861E+05  2.115961E+05 -1.654361E-12 -7.610062E-12
        42  25 -5.018767E+05 -2.877509E+05 -1.579255E+05  2.306009E+05  0.000000E+00  1.058791E-11
        42  26 -4.954649E+05 -2.875190E+05 -1.565968E+05  2.297465E+05  2.646978E-12  7.940934E-12
        42  27 -4.901294E+05 -2.849612E+05 -1.550181E+05  2.275439E+05 -4.632211E-12  7.279189E-12
        43   1 -5.122207E+05 -2.950808E+05 -1.614603E+05  2.433189E+05  1.522012E-11 -1.985233E-11
        43   2 -5.065948E+05 -2.895770E+05 -1.592344E+05  2.399729E+05 -4.632211E-12 -2.018321E-11
        43   3 -5.006165E+05 -2.854491E+05 -1.572131E+05  2.368040E+05  1.389663E-11 -1.869428E-11
        43   4 -5.319842E+05 -3.012960E+05 -1.666560E+05  2.712012E+05  2.646978E-12 -1.323489E-11
        43   5 -5.262993E+05 -2.910813E+05 -1.634761E+05  2.637478E+05  7.940934E-12 -7.940934E-12
        43   6 -5.206618E+05 -2.811669E+05 -1.603657E+05  2.552281E+05  1.885972E-11 -7.940934E-12
        43   7 -5.553007E+05 -3.100288E+05 -1.730659E+05  3.008933E+05  1.588187E-11 -5.293956E-12
        43   8 -5.515892E+05 -2.960969E+05 -1.695372E+05  2.900480E+05  5.293956E-12 -1.058791E-11
        43   9 -5.483068E+05 -2.815212E+05 -1.659656E+05  2.770493E+05  1.455838E-11 -2.713152E-11
        43  10 -5.122207E+05 -2.950808E+05 -1.614603E+05  2.433189E+05 -6.617445E-13  6.617445E-13
        43  11 -5.065948E+05 -2.895770E+05 -1.592344E+05  2.399729E+05  3.308722E-13  0.000000E+00
        43  12 -5.006165E+05 -2.854491E+05 -1.572131E+05  2.368040E+05 -1.488925E-12  2.481542E-12
        43  13 -5.319842E+05 -3.012960E+05 -1.666560E+05  2.712012E+05  0.000000E+00  0.000000E+00
        43  14 -5.262993E+05 -2.910813E+05 -1.634761E+05  2.637478E+05 -7.940934E-12  1.323489E-12
        43  15 -5.206618E+05 -2.811669E+05 -1.603657E+05  2.552281E+05 -3.639595E-12  9.926167E-13
        43  16 -5.553007E+05 -3.100288E+05 -1.730659E+05  3.008933E+05 -1.985233E-12 -1.323489E-12
        43  17 -5.515892E+05 -2.960969E+05 -1.695372E+05  2.900480E+05 -1.323489E-12 -3.308722E-13
        43  18 -5.483068E+05 -2.815212E+05 -1.659656E+05  2.770493E+05 -5.790264E-13 -1.488925E-12
        43  19 -5.122207E+05 -2.950808E+05 -1.614603E+05  2.433189E+05 -4.632211E-12  9.264423E-12
        43  20 -5.065948E+05 -2.895770E+05 -1.592344E+05  2.399729E+05 -1.654361E-11 -9.926167E-13
        43  21 -5.006165E+05 -2.854491E+05 -1.572131E+05  2.368040E+05 -3.308722E-12  8.106370E-12
        43  22 -5.319842E+05 -3.012960E+05 -1.666560E+05  2.712012E+05 -1.323489E-11  1.323489E-11
        43  23 -5.262993E+05 -2.910813E+05 -1.634761E+05  2.637478E+05 -7.940934E-12  7.940934E-12
        43  24 -5.206618E+05 -2.811669E+05 -1.603657E+05  2.552281E+05  1.290402E-11 -2.646978E-12
        43  25 -5.553007E+05 -3.100288E+05 -1.730659E+05  3.008933E+05  5.293956E-12  5.293956E-12
        43  26 -5.515892E+05 -2.960969E+05 -1.695372E+05  2.900480E+05 -5.293956E-12  1.058791E-11
        43  27 -5.483068E+05 -2.815212E+05 -1.659656E+05  2.770493E+05 -1.455838E-11  2.713152E-11
        44   1 -5.254166E+05 -2.873568E+05 -1.625547E+05  2.391980E+05  7.279189E-12  0.000000E+00
        44   2 -5.204354E+05 -2.916269E+05 -1.624124E+05  2.415840E+05  1.058791E-11  1.257315E-11
        44   3 -5.158654E+05 -2.952836E+05 -1.622298E+05  2.434808E+05  4.797648E-12 -1.067063E-11
        44   4 -5.299203E+05 -3.098570E+05 -1.679555E+05  2.741968E+05  1.588187E-11  2.646978E-12
        44   5 -5.296426E+05 -3.076723E+05 -1.674630E+05  2.739641E+05  1.323489E-12  7.940934E-12
        44   6 -5.304840E+05 -3.034519E+05 -1.667872E+05  2.722529E+05  6.617445E-13  2.316106E-12
        44   7 -5.404939E+05 -3.366569E+05 -1.754301E+05  3.126404E+05  0.000000E+00  0.000000E+00
        44   8 -5.481654E+05 -3.297116E+05 -1.755754E+05  3.109168E+05  0.000000E+00 -2.646978E-12
        44   9 -5.575611E+05 -3.194362E+05 -1.753995E+05  3.067976E+05  1.455838E-11 -1.455838E-11
        44  10 -5.254166E+05 -2.873568E+05 -1.625547E+05  2.391980E+05  1.323489E-12 -6.617445E-13
        44  11 -5.204354E+05 -2.916269E+05 -1.624124E+05  2.415840E+05 -2.646978E-12  9.926167E-13
        44  12 -5.158654E+05 -2.952836E+05 -1.622298E+05  2.434808E+05 -2.481542E-13 -1.985233E-12
        44  13 -5.299203E+05 -3.098570E+05 -1.679555E+05  2.741968E+05  0.000000E+00 -2.646978E-12
        44  14 -5.296426E+05 -3.076723E+05 -1.674630E+05  2.739641E+05 -1.323489E-12 -4.632211E-12
        44  15 -5.304840E+05 -3.034519E+05 -1.667872E+05  2.722529E+05  4.963084E-13 -1.654361E-12
        44  16 -5.404939E+05 -3.366569E+05 -1.754301E+05  3.126404E+05  1.323489E-12 -6.617445E-13
        44  17 -5.481654E+05 -3.297116E+05 -1.755754E+05  3.109168E+05 -3.308722E-13  0.000000E+00
        44  18 -5.575611E+05 -3.194362E+05 -1.753995E+05  3.067976E+05  1.488925E-12 -1.654361E-12
        44  19 -5.254166E+05 -2.873568E+05 -1.625547E+05  2.391980E+05 -7.279189E-12  1.058791E-11
        44  20 -5.204354E+05 -2.916269E+05 -1.624124E+05  2.415840E+05 -1.058791E-11 -7.279189E-12
        44  21 -5.158654E+05 -2.952836E+05 -1.622298E+05  2.434808E+05  4.963084E-13 -5.211238E-12
        44  22 -5.299203E+05 -3.098570E+05 -1.679555E+05  2.741968E+05 -5.293956E-12 -7.940934E-12
        44  23 -5.296426E+05 -3.076723E+05 -1.674630E+05  2.739641E+05  9.264423E-12 -7.940934E-12
        44  24 -5.304840E+05 -3.034519E+05 -1.667872E+05  2.722529E+05 -5.955700E-12 -7.610062E-12
        44  25 -5.404939E+05 -3.366569E+05 -1.754301E+05  3.126404E+05  1.058791E-11 -5.293956E-12
        44  26 -5.481654E+05 -3.297116E+05 -1.755754E+05  3.109168E+05  5.293956E-12 -2.646978E-12
        44  27 -5.575611E+05 -3.194362E+05 -1.753995E+05  3.067976E+05 -3.970467E-12 -1.323489E-12
        45   1 -4.509361E+05 -2.793243E+05 -1.460521E+05  1.935363E+05 -2.448455E-11 -2.646978E-12
        45   2 -4.309084E+05 -2.776122E+05 -1.417041E+05  1.797677E+05  9.926167E-12  3.308722E-12
        45   3 -4.098553E+05 -2.763695E+05 -1.372450E+05  1.656423E+05  1.323489E-11 -2.721424E-11
        45   4 -4.655011E+05 -2.794373E+05 -1.489877E+05  2.072704E+05  7.940934E-12  0.000000E+00
        45   5 -4.464176E+05 -2.756887E+05 -1.444213E+05  1.933875E+05 -7.940934E-12 -2.646978E-12
        45   6 -4.260679E+05 -2.729592E+05 -1.398054E+05  1.791390E+05  8.271806E-12 -2.514629E-11
        45   7 -4.816868E+05 -2.803867E+05 -1.524147E+05  2.216818E+05  5.293956E-12  0.000000E+00
        45   8 -4.628137E+05 -2.738762E+05 -1.473380E+05  2.072869E+05  1.323489E-11  5.293956E-12
        45   9 -4.426305E+05 -2.690552E+05 -1.423371E+05  1.926129E+05  7.279189E-12 -1.522012E-11
        45  10 -4.509361E+05 -2.793243E+05 -1.460521E+05  1.935363E+05 -1.323489E-12  1.985233E-12
        45  11 -4.309084E+05 -2.776122E+05 -1.417041E+05  1.797677E+05  0.000000E+00 -6.617445E-13
        45  12 -4.098553E+05 -2.763695E+05 -1.372450E+05  1.656423E+05 -1.654361E-13  0.000000E+00
        45  13 -4.655011E+05 -2.794373E+05 -1.489877E+05  2.072704E+05 -2.646978E-12  0.000000E+00
        45  14 -4.464176E+05 -2.756887E+05 -1.444213E+05  1.933875E+05 -2.646978E-12 -5.293956E-12
        45  15 -4.260679E+05 -2.729592E+05 -1.398054E+05  1.791390E+05 -6.617445E-13  1.654361E-12
        45  16 -4.816868E+05 -2.803867E+05 -1.524147E+05  2.216818E+05 -1.985233E-12  2.646978E-12
        45  17 -4.628137E+05 -2.738762E+05 -1.473380E+05  2.072869E+05  6.617445E-13  2.646978E-12
        45  18 -4.426305E+05 -2.690552E+05 -1.423371E+05  1.926129E+05 -1.323489E-12  1.654361E-12
        45  19 -4.509361E+05 -2.793243E+05 -1.460521E+05  1.935363E+05 -1.985233E-12 -7.940934E-12
        45  20 -4.309084E+05 -2.776122E+05 -1.417041E+05  1.797677E+05 -4.632211E-12  7.279189E-12
        45  21 -4.098553E+05 -2.763695E+05 -1.372450E+05  1.656423E+05 -1.323489E-11  6.038418E-12
        45  22 -4.655011E+05 -2.794373E+05 -1.489877E+05  2.072704E+05  1.323489E-11 -1.058791E-11
        45  23 -4.464176E+05 -2.756887E+05 -1.444213E+05  1.933875E+05  7.940934E-12  2.646978E-12
        45  24 -4.260679E+05 -2.729592E+05 -1.398054E+05  1.791390E+05 -2.977850E-12  1.455838E-11
        45  25 -4.816868E+05 -2.803867E+05 -1.524147E+05  2.216818E+05  5.293956E-12  0.000000E+00
        45  26 -4.628137E+05 -2.738762E+05 -1.473380E+05  2.072869E+05 -1.323489E-11 -5.293956E-12
        45  27 -4.426305E+05 -2.690552E+05 -1.423371E+05  1.926129E+05 -7.279189E-12  1.522012E-11
        46   1 -3.984674E+05 -2.760908E+05 -1.349116E+05  1.575501E+05  0.000000E+00 -5.293956E-12
        46   2 -3.796612E+05 -2.747563E+05 -1.308835E+05  1.429830E+05  2.349193E-11  2.646978E-12
        46   3 -3.607939E+05 -2.737613E+05 -1.269110E+05  1.281617E+05 -7.444626E-13  7.279189E-12
        46   4 -4.147702E+05 -2.710873E+05 -1.371715E+05  1.709559E+05  1.323489E-11 -1.058791E-11
        46   5 -3.962535E+05 -2.677404E+05 -1.327988E+05  1.568552E+05  1.058791E-11  0.000000E+00
        46   6 -3.776216E+05 -2.651011E+05 -1.285445E+05  1.424176E+05  0.000000E+00 -5.955700E-12
        46   7 -4.308067E+05 -2.659504E+05 -1.393514E+05  1.842350E+05 -1.058791E-11 -1.058791E-11
        46   8 -4.122477E+05 -2.599601E+05 -1.344416E+05  1.703267E+05  5.293956E-12  5.293956E-12
        46   9 -3.935869E+05 -2.551424E+05 -1.297459E+05  1.560571E+05 -6.617445E-13  1.323489E-11
        46  10 -3.984674E+05 -2.760908E+05 -1.349116E+05  1.575501E+05  0.000000E+00  0.000000E+00
        46  11 -3.796612E+05 -2.747563E+05 -1.308835E+05  1.429830E+05  1.323489E-12  1.985233E-12
        46  12 -3.607939E+05 -2.737613E+05 -1.269110E+05  1.281617E+05  4.135903E-13 -2.646978E-12
        46  13 -4.147702E+05 -2.710873E+05 -1.371715E+05  1.709559E+05  0.000000E+00 -2.646978E-12
        46  14 -3.962535E+05 -2.677404E+05 -1.327988E+05  1.568552E+05 -1.323489E-12 -1.323489E-12
        46  15 -3.776216E+05 -2.651011E+05 -1.285445E+05  1.424176E+05  2.316106E-12 -2.646978E-12
        46  16 -4.308067E+05 -2.659504E+05 -1.393514E+05  1.842350E+05  0.000000E+00  1.323489E-12
        46  17 -4.122477E+05 -2.599601E+05 -1.344416E+05  1.703267E+05  0.000000E+00 -6.617445E-13
        46  18 -3.935869E+05 -2.551424E+05 -1.297459E+05  1.560571E+05 -8.271806E-14 -1.654361E-13
        46  19 -3.984674E+05 -2.760908E+05 -1.349116E+05  1.575501E+05 -1.058791E-11  1.588187E-11
        46  20 -3.796612E+05 -2.747563E+05 -1.308835E+05  1.429830E+05 -7.610062E-12  2.911676E-11
        46  21 -3.607939E+05 -2.737613E+05 -1.269110E+05  1.281617E+05 -9.843449E-12 -1.786710E-11
        46  22 -4.147702E+05 -2.710873E+05 -1.371715E+05  1.709559E+05 -2.646978E-12  0.000000E+00
        46  23 -3.962535E+05 -2.677404E+05 -1.327988E+05  1.568552E+05  5.293956E-12  1.058791E-11
        46  24 -3.776216E+05 -2.651011E+05 -1.285445E+05  1.424176E+05  5.293956E-12  5.955700E-12
        46  25 -4.308067E+05 -2.659504E+05 -1.393514E+05  1.842350E+05 -2.117582E-11  1.058791E-11
        46  26 -4.122477E+05 -2.599601E+05 -1.344416E+05  1.703267E+05 -5.293956E-12  5.293956E-12
        46  27 -3.935869E+05 -2.551424E+05 -1.297459E+05  1.560571E+05 -9.926167E-12 -1.323489E-11
        47   1 -4.419089E+05 -2.607889E+05 -1.405396E+05  1.923231E+05  7.940934E-12 -2.382280E-11
        47   2 -4.232470E+05 -2.526050E+05 -1.351704E+05  1.779236E+05  1.323489E-12 -1.058791E-11
        47   3 -4.030342E+05 -2.460638E+05 -1.298196E+05  1.635426E+05  5.293956E-12 -4.135903E-12
        47   4 -4.679207E+05 -2.459481E+05 -1.427737E+05  2.052220E+05  1.058791E-11 -1.588187E-11
        47   5 -4.484427E+05 -2.346101E+05 -1.366106E+05  1.883807E+05  0.000000E+00  7.940934E-12
        47   6 -4.270195E+05 -2.252122E+05 -1.304464E+05  1.716601E+05 -8.602678E-12  1.985233E-12
        47   7 -4.935105E+05 -2.284752E+05 -1.443971E+05  2.173075E+05  5.293956E-12 -1.058791E-11
        47   8 -4.725196E+05 -2.132322E+05 -1.371504E+05  1.976551E+05  2.646978E-11 -1.058791E-11
        47   9 -4.492083E+05 -2.002120E+05 -1.298841E+05  1.782059E+05  1.455838E-11 -9.264423E-12
        47  10 -4.419089E+05 -2.607889E+05 -1.405396E+05  1.923231E+05 -1.323489E-12  0.000000E+00
        47  11 -4.232470E+05 -2.526050E+05 -1.351704E+05  1.779236E+05 -6.617445E-13 -6.617445E-13
        47  12 -4.030342E+05 -2.460638E+05 -1.298196E+05  1.635426E+05  0.000000E+00 -2.150670E-12
        47  13 -4.679207E+05 -2.459481E+05 -1.427737E+05  2.052220E+05 -2.646978E-12 -5.293956E-12
        47  14 -4.484427E+05 -2.346101E+05 -1.366106E+05  1.883807E+05  2.646978E-12  1.323489E-12
        47  15 -4.270195E+05 -2.252122E+05 -1.304464E+05  1.716601E+05  3.308722E-12  1.323489E-12
        47  16 -4.935105E+05 -2.284752E+05 -1.443971E+05  2.173075E+05  0.000000E+00  0.000000E+00
        47  17 -4.725196E+05 -2.132322E+05 -1.371504E+05  1.976551E+05  1.985233E-12 -6.617445E-13
        47  18 -4.492083E+05 -2.002120E+05 -1.298841E+05  1.782059E+05 -1.488925E-12 -8.271806E-13
        47  19 -4.419089E+05 -2.607889E+05 -1.405396E+05  1.923231E+05 -7.940934E-12  2.382280E-11
        47  20 -4.232470E+05 -2.526050E+05 -1.351704E+05  1.779236E+05 -1.191140E-11  0.000000E+00
        47  21 -4.030342E+05 -2.460638E+05 -1.298196E+05  1.635426E+05 -2.646978E-11  4.135903E-12
        47  22 -4.679207E+05 -2.459481E+05 -1.427737E+05  2.052220E+05  0.000000E+00  2.646978E-11
        47  23 -4.484427E+05 -2.346101E+05 -1.366106E+05  1.883807E+05  2.117582E-11 -7.940934E-12
        47  24 -4.270195E+05 -2.252122E+05 -1.304464E+05  1.716601E+05  8.602678E-12  8.602678E-12
        47  25 -4.935105E+05 -2.284752E+05 -1.443971E+05  2.173075E+05  5.293956E-12  0.000000E+00
        47  26 -4.725196E+05 -2.132322E+05 -1.371504E+05  1.976551E+05 -2.646978E-11  1.058791E-11
        47  27 -4.492083E+05 -2.002120E+05 -1.298841E+05  1.782059E+05  6.617445E-12 -1.191140E-11
        48   1 -4.913661E+05 -2.804670E+05 -1.543666E+05  2.306252E+05  1.323489E-11  2.580804E-11
        48   2 -4.733093E+05 -2.719937E+05 -1.490606E+05  2.157393E+05  4.632211E-12 -6.617445E-13
        48   3 -4.535631E+05 -2.649757E+05 -1.437078E+05  2.008468E+05 -9.678013E-12 -1.819797E-12
        48   4 -5.142555E+05 -2.748694E+05 -1.578250E+05  2.479357E+05  1.058791E-11  0.000000E+00
        48   5 -4.982116E+05 -2.623614E+05 -1.521146E+05  2.314509E+05 -7.940934E-12  1.852885E-11
        48   6 -4.795521E+05 -2.521444E+05 -1.463393E+05  2.149924E+05  1.124966E-11 -2.779327E-11
        48   7 -5.402677E+05 -2.705898E+05 -1.621715E+05  2.664355E+05  1.588187E-11 -1.588187E-11
        48   8 -5.249056E+05 -2.528384E+05 -1.555488E+05  2.476927E+05  1.588187E-11 -5.293956E-12
        48   9 -5.061856E+05 -2.382164E+05 -1.488804E+05  2.290456E+05  6.617445E-13 -2.249931E-11
        48  10 -4.913661E+05 -2.804670E+05 -1.543666E+05  2.306252E+05  1.985233E-12 -1.323489E-12
        48  11 -4.733093E+05 -2.719937E+05 -1.490606E+05  2.157393E+05  0.000000E+00 -1.323489E-12
        48  12 -4.535631E+05 -2.649757E+05 -1.437078E+05  2.008468E+05 -1.158053E-12 -1.323489E-12
        48  13 -5.142555E+05 -2.748694E+05 -1.578250E+05  2.479357E+05  2.646978E-12 -2.646978E-12
        48  14 -4.982116E+05 -2.623614E+05 -1.521146E+05  2.314509E+05  2.646978E-12  2.646978E-12
        48  15 -4.795521E+05 -2.521444E+05 -1.463393E+05  2.149924E+05  0.000000E+00  2.646978E-12
        48  16 -5.402677E+05 -2.705898E+05 -1.621715E+05  2.664355E+05  1.985233E-12  0.000000E+00
        48  17 -5.249056E+05 -2.528384E+05 -1.555488E+05  2.476927E+05  1.323489E-12  6.617445E-13
        48  18 -5.061856E+05 -2.382164E+05 -1.488804E+05  2.290456E+05 -1.158053E-12 -9.926167E-13
        48  19 -4.913661E+05 -2.804670E+05 -1.543666E+05  2.306252E+05 -2.646978E-12 -4.632211E-12
        48  20 -4.733093E+05 -2.719937E+05 -1.490606E+05  2.157393E+05 -1.522012E-11  6.617445E-13
        48  21 -4.535631E+05 -2.649757E+05 -1.437078E+05  2.008468E+05  9.678013E-12 -8.768114E-12
        48  22 -5.142555E+05 -2.748694E+05 -1.578250E+05  2.479357E+05 -1.058791E-11  0.000000E+00
        48  23 -4.982116E+05 -2.623614E+05 -1.521146E+05  2.314509E+05  7.940934E-12 -7.940934E-12
        48  24 -4.795521E+05 -2.521444E+05 -1.463393E+05  2.149924E+05 -1.124966E-11  6.617445E-12
        48  25 -5.402677E+05 -2.705898E+05 -1.621715E+05  2.664355E+05 -5.293956E-12  1.588187E-11
        48  26 -5.249056E+05 -2.528384E+05 -1.555488E+05  2.476927E+05 -5.293956E-12  5.293956E-12
        48  27 -5.061856E+05 -2.382164E+05 -1.488804E+05  2.290456E+05 -1.124966E-11  1.191140E-11
        49   1 -3.569178E+05 -2.545517E+05 -1.222939E+05  1.394859E+05  7.940934E-12  5.293956E-12
        49   2 -3.634415E+05 -2.381671E+05 -1.203217E+05  1.442445E+05  6.121137E-12  2.646978E-12
        49   3 -3.708536E+05 -2.240896E+05 -1.189886E+05  1.499011E+05  7.940934E-12 -1.406207E-12
        49   4 -3.301340E+05 -2.576256E+05 -1.175519E+05  1.341532E+05  6.617445E-12  5.293956E-12
        49   5 -3.356835E+05 -2.399717E+05 -1.151310E+05  1.397499E+05  0.000000E+00 -1.323489E-12
        49   6 -3.421598E+05 -2.249481E+05 -1.134216E+05  1.465430E+05  5.128520E-12 -6.948317E-12
        49   7 -2.963680E+05 -2.596440E+05 -1.112024E+05  1.282086E+05  0.000000E+00  0.000000E+00
        49   8 -2.997851E+05 -2.401652E+05 -1.079901E+05  1.345154E+05  3.970467E-12 -5.293956E-12
        49   9 -3.039875E+05 -2.236189E+05 -1.055213E+05  1.423600E+05  3.308722E-13  2.646978E-12
        49  10 -3.569178E+05 -2.545517E+05 -1.222939E+05  1.394859E+05  0.000000E+00  6.617445E-13
        49  11 -3.634415E+05 -2.381671E+05 -1.203217E+05  1.442445E+05  1.654361E-13  3.308722E-13
        49  12 -3.708536E+05 -2.240896E+05 -1.189886E+05  1.499011E+05  4.549493E-13 -1.075335E-12
        49  13 -3.301340E+05 -2.576256E+05 -1.175519E+05  1.341532E+05 -6.617445E-13  0.000000E+00
        49  14 -3.356835E+05 -2.399717E+05 -1.151310E+05  1.397499E+05  0.000000E+00  0.000000E+00
        49  15 -3.421598E+05 -2.249481E+05 -1.134216E+05  1.465430E+05 -8.271806E-13 -9.926167E-13
        49  16 -2.963680E+05 -2.596440E+05 -1.112024E+05  1.282086E+05  6.617445E-13  0.000000E+00
        49  17 -2.997851E+05 -2.401652E+05 -1.079901E+05  1.345154E+05 -8.271806E-13 -9.926167E-13
        49  18 -3.039875E+05 -2.236189E+05 -1.055213E+05  1.423600E+05 -4.963084E-13  4.963084E-13
        49  19 -3.569178E+05 -2.545517E+05 -1.222939E+05  1.394859E+05 -2.646978E-12  5.293956E-12
        49  20 -3.634415E+05 -2.381671E+05 -1.203217E+05  1.442445E+05 -3.474159E-12  2.646978E-12
        49  21 -3.708536E+05 -2.240896E+05 -1.189886E+05  1.499011E+05 -7.940934E-12 -3.887749E-12
        49  22 -3.301340E+05 -2.576256E+05 -1.175519E+05  1.341532E+05 -3.970467E-12  0.000000E+00
        49  23 -3.356835E+05 -2.399717E+05 -1.151310E+05  1.397499E+05  0.000000E+00  1.323489E-12
        49  24 -3.421598E+05 -2.249481E+05 -1.134216E+05  1.465430E+05 -7.775498E-12  6.948317E-12
        49  25 -2.963680E+05 -2.596440E+05 -1.112024E+05  1.282086E+05  0.000000E+00 -5.293956E-12
        49  26 -2.997851E+05 -2.401652E+05 -1.079901E+05  1.345154E+05 -6.617445E-12  5.293956E-12
        49  27 -3.039875E+05 -2.236189E+05 -1.055213E+05  1.423600E+05 -2.977850E-12 -2.646978E-12
        50   1 -3.753139E+05 -2.156535E+05 -1.181935E+05  1.512923E+05 -1.985233E-12 -5.624828E-12
        50   2 -3.831338E+05 -2.036422E+05 -1.173552E+05  1.548957E+05  4.963084E-13 -4.135903E-12
        50   3 -3.919155E+05 -1.941996E+05 -1.172230E+05  1.594326E+05  1.013296E-12  2.812414E-12
        50   4 -3.475566E+05 -2.165803E+05 -1.128274E+05  1.477231E+05  5.293956E-12  3.970467E-12
        50   5 -3.557010E+05 -2.066391E+05 -1.124680E+05  1.515336E+05  1.323489E-12  0.000000E+00
        50   6 -3.648320E+05 -1.997890E+05 -1.129242E+05  1.563306E+05 -1.819797E-12  1.323489E-12
        50   7 -3.165532E+05 -2.163037E+05 -1.065714E+05  1.432236E+05  3.970467E-12 -2.646978E-12
        50   8 -3.248219E+05 -2.084932E+05 -1.066630E+05  1.471669E+05  5.293956E-12  7.940934E-12
        50   9 -3.340674E+05 -2.044501E+05 -1.077035E+05  1.521489E+05  1.488925E-12  3.970467E-12
        50  10 -3.753139E+05 -2.156535E+05 -1.181935E+05  1.512923E+05  6.617445E-13  9.926167E-13
        50  11 -3.831338E+05 -2.036422E+05 -1.173552E+05  1.548957E+05  1.654361E-13  9.926167E-13
        50  12 -3.919155E+05 -1.941996E+05 -1.172230E+05  1.594326E+05  1.654361E-13  0.000000E+00
        50  13 -3.475566E+05 -2.165803E+05 -1.128274E+05  1.477231E+05  0.000000E+00  0.000000E+00
        50  14 -3.557010E+05 -2.066391E+05 -1.124680E+05  1.515336E+05 -3.308722E-13 -6.617445E-13
        50  15 -3.648320E+05 -1.997890E+05 -1.129242E+05  1.563306E+05  8.271806E-14  2.150670E-12
        50  16 -3.165532E+05 -2.163037E+05 -1.065714E+05  1.432236E+05  3.308722E-13  3.308722E-13
        50  17 -3.248219E+05 -2.084932E+05 -1.066630E+05  1.471669E+05  1.654361E-13  3.308722E-13
        50  18 -3.340674E+05 -2.044501E+05 -1.077035E+05  1.521489E+05 -3.308722E-13  0.000000E+00
        50  19 -3.753139E+05 -2.156535E+05 -1.181935E+05  1.512923E+05  4.632211E-12  5.624828E-12
        50  20 -3.831338E+05 -2.036422E+05 -1.173552E+05  1.548957E+05 -3.143286E-12 -1.158053E-12
        50  21 -3.919155E+05 -1.941996E+05 -1.172230E+05  1.594326E+05 -3.660274E-12 -2.812414E-12
        50  22 -3.475566E+05 -2.165803E+05 -1.128274E+05  1.477231E+05 -5.293956E-12  1.323489E-12
        50  23 -3.557010E+05 -2.066391E+05 -1.124680E+05  1.515336E+05  1.323489E-12  2.646978E-12
        50  24 -3.648320E+05 -1.997890E+05 -1.129242E+05  1.563306E+05 -8.271806E-13  1.323489E-12
        50  25 -3.165532E+05 -2.163037E+05 -1.065714E+05  1.432236E+05 -1.323489E-12  2.646978E-12
        50  26 -3.248219E+05 -2.084932E+05 -1.066630E+05  1.471669E+05 -2.646978E-12  0.000000E+00
        50  27 -3.340674E+05 -2.044501E+05 -1.077035E+05  1.521489E+05 -1.488925E-12 -6.617445E-12
        51   1 -2.949879E+05 -2.194083E+05 -1.028792E+05  1.348231E+05  1.654361E-12  1.985233E-12
        51   2 -3.045994E+05 -2.153620E+05 -1.039923E+05  1.417576E+05  4.797648E-12 -5.293956E-12
        51   3 -3.137728E+05 -2.095874E+05 -1.046720E+05  1.487729E+05  2.853773E-12 -1.075335E-12
        51   4 -2.496889E+05 -2.214762E+05 -9.423303E+04  1.348304E+05  6.617445E-12  1.323489E-12
        51   5 -2.639394E+05 -2.218616E+05 -9.716020E+04  1.419970E+05  1.323489E-12  0.000000E+00
        51   6 -2.779263E+05 -2.199934E+05 -9.958394E+04  1.486465E+05  1.323489E-12 -8.933551E-12
        51   7 -2.007561E+05 -2.211229E+05 -8.437580E+04  1.320606E+05  0.000000E+00 -5.293956E-12
        51   8 -2.223476E+05 -2.273643E+05 -8.994239E+04  1.399336E+05  1.985233E-12 -5.293956E-12
        51   9 -2.447751E+05 -2.310587E+05 -9.516677E+04  1.465933E+05  3.805031E-12 -3.308722E-12
        51  10 -2.949879E+05 -2.194083E+05 -1.028792E+05  1.348231E+05  0.000000E+00 -9.926167E-13
        51  11 -3.045994E+05 -2.153620E+05 -1.039923E+05  1.417576E+05 -4.963084E-13 -3.308722E-13
        51  12 -3.137728E+05 -2.095874E+05 -1.046720E+05  1.487729E+05 -2.895132E-13 -2.895132E-13
        51  13 -2.496889E+05 -2.214762E+05 -9.423303E+04  1.348304E+05  0.000000E+00  0.000000E+00
        51  14 -2.639394E+05 -2.218616E+05 -9.716020E+04  1.419970E+05  1.323489E-12 -1.323489E-12
        51  15 -2.779263E+05 -2.199934E+05 -9.958394E+04  1.486465E+05  8.271806E-14  3.308722E-13
        51  16 -2.007561E+05 -2.211229E+05 -8.437580E+04  1.320606E+05 -1.654361E-13  9.926167E-13
        51  17 -2.223476E+05 -2.273643E+05 -8.994239E+04  1.399336E+05 -8.271806E-14  0.000000E+00
        51  18 -2.447751E+05 -2.310587E+05 -9.516677E+04  1.465933E+05  1.240771E-13 -1.654361E-13
        51  19 -2.949879E+05 -2.194083E+05 -1.028792E+05  1.348231E+05 -4.301339E-12 -1.985233E-12
        51  20 -3.045994E+05 -2.153620E+05 -1.039923E+05  1.417576E+05  4.963084E-13  0.000000E+00
        51  21 -3.137728E+05 -2.095874E+05 -1.046720E+05  1.487729E+05 -5.500751E-12  3.722313E-12
        51  22 -2.496889E+05 -2.214762E+05 -9.423303E+04  1.348304E+05 -2.646978E-12 -6.617445E-12
        51  23 -2.639394E+05 -2.218616E+05 -9.716020E+04  1.419970E+05  0.000000E+00  0.000000E+00
        51  24 -2.779263E+05 -2.199934E+05 -9.958394E+04  1.486465E+05  0.000000E+00  3.639595E-12
        51  25 -2.007561E+05 -2.211229E+05 -8.437580E+04  1.320606E+05 -2.646978E-12  5.293956E-12
        51  26 -2.223476E+05 -2.273643E+05 -8.994239E+04  1.399336E+05  6.617445E-13  5.293956E-12
        51  27 -2.447751E+05 -2.310587E+05 -9.516677E+04  1.465933E+05 -5.128520E-12  3.308722E-12
        52   1 -2.696645E+05 -2.481169E+05 -1.035563E+05  1.336885E+05  5.790264E-12 -5.293956E-12
        52   2 -2.767007E+05 -2.280323E+05 -1.009466E+05  1.377350E+05  5.707546E-12 -1.422751E-11
        52   3 -2.875900E+05 -2.212890E+05 -1.017758E+05  1.370978E+05  2.026593E-12  1.654361E-13
        52   4 -2.119950E+05 -2.605003E+05 -9.449906E+04  1.230264E+05  5.955700E-12 -2.646978E-12
        52   5 -2.318621E+05 -2.349988E+05 -9.337218E+04  1.310751E+05 -3.308722E-13  3.970467E-12
        52   6 -2.573334E+05 -2.249895E+05 -9.646458E+04  1.342336E+05  2.481542E-13  1.985233E-12
        52   7 -1.134385E+05 -2.651229E+05 -7.571228E+04  1.074610E+05  2.646978E-12 -5.293956E-12
        52   8 -1.429317E+05 -2.316690E+05 -7.492014E+04  1.188254E+05  1.985233E-12  0.000000E+00
        52   9 -1.795778E+05 -2.159241E+05 -7.910036E+04  1.248779E+05  2.977850E-12 -1.058791E-11
        52  10 -2.696645E+05 -2.481169E+05 -1.035563E+05  1.336885E+05  3.308722E-13 -6.617445E-13
        52  11 -2.767007E+05 -2.280323E+05 -1.009466E+05  1.377350E+05  0.000000E+00  9.926167E-13
        52  12 -2.875900E+05 -2.212890E+05 -1.017758E+05  1.370978E+05  4.549493E-13 -4.963084E-13
        52  13 -2.119950E+05 -2.605003E+05 -9.449906E+04  1.230264E+05  6.617445E-13  0.000000E+00
        52  14 -2.318621E+05 -2.349988E+05 -9.337218E+04  1.310751E+05 -1.323489E-12  3.308722E-12
        52  15 -2.573334E+05 -2.249895E+05 -9.646458E+04  1.342336E+05  3.308722E-13  2.812414E-12
        52  16 -1.134385E+05 -2.651229E+05 -7.571228E+04  1.074610E+05  1.654361E-13  0.000000E+00
        52  17 -1.429317E+05 -2.316690E+05 -7.492014E+04  1.188254E+05 -3.308722E-13  6.617445E-13
        52  18 -1.795778E+05 -2.159241E+05 -7.910036E+04  1.248779E+05  4.756289E-13  1.654361E-13
        52  19 -2.696645E+05 -2.481169E+05 -1.035563E+05  1.336885E+05 -3.143286E-12  5.293956E-12
        52  20 -2.767007E+05 -2.280323E+05 -1.009466E+05  1.377350E+05  2.233388E-12 -1.654361E-12
        52  21 -2.875900E+05 -2.212890E+05 -1.017758E+05  1.370978E+05 -4.673570E-12 -5.459392E-12
        52  22 -2.119950E+05 -2.605003E+05 -9.449906E+04  1.230264E+05 -6.617445E-13 -2.646978E-12
        52  23 -2.318621E+05 -2.349988E+05 -9.337218E+04  1.310751E+05  3.308722E-13 -9.264423E-12
        52  24 -2.573334E+05 -2.249895E+05 -9.646458E+04  1.342336E+05 -1.571643E-12 -7.279189E-12
        52  25 -1.134385E+05 -2.651229E+05 -7.571228E+04  1.074610E+05 -2.646978E-12  0.000000E+00
        52  26 -1.429317E+05 -2.316690E+05 -7.492014E+04  1.188254E+05 -1.985233E-12  5.293956E-12
        52  27 -1.795778E+05 -2.159241E+05 -7.910036E+04  1.248779E+05 -3.308722E-13 -5.293956E-12
        53   1 -5.422095E+05 -1.761255E+05 -1.436670E+05  1.709700E+05  4.466775E-12  3.143286E-12
        53   2 -5.334839E+05 -1.870453E+05 -1.441058E+05  1.718392E+05 -1.323489E-12 -4.053185E-12
        53   3 -5.266113E+05 -1.988748E+05 -1.450972E+05  1.740158E+05  1.654361E-13  1.158053E-12
        53   4 -5.631967E+05 -1.741983E+05 -1.474790E+05  1.713038E+05  0.000000E+00  0.000000E+00
        53   5 -5.543690E+05 -1.832491E+05 -1.475236E+05  1.727009E+05 -6.617445E-13 -6.617445E-12
        53   6 -5.476603E+05 -1.939354E+05 -1.483191E+05  1.754600E+05  7.444626E-12  4.797648E-12
        53   7 -5.823076E+05 -1.714920E+05 -1.507599E+05  1.722303E+05 -3.970467E-12  0.000000E+00
        53   8 -5.738595E+05 -1.791146E+05 -1.505948E+05  1.737971E+05  1.058791E-11 -1.985233E-12
        53   9 -5.677732E+05 -1.891752E+05 -1.513897E+05  1.768490E+05 -5.128520E-12  4.963084E-13
        53  10 -5.422095E+05 -1.761255E+05 -1.436670E+05  1.709700E+05  3.308722E-13  0.000000E+00
        53  11 -5.334839E+05 -1.870453E+05 -1.441058E+05  1.718392E+05  6.617445E-13  3.308722E-13
        53  12 -5.266113E+05 -1.988748E+05 -1.450972E+05  1.740158E+05  5.790264E-13 -1.654361E-13
        53  13 -5.631967E+05 -1.741983E+05 -1.474790E+05  1.713038E+05  0.000000E+00  6.617445E-13
        53  14 -5.543690E+05 -1.832491E+05 -1.475236E+05  1.727009E+05  6.617445E-13 -3.308722E-13
        53  15 -5.476603E+05 -1.939354E+05 -1.483191E+05  1.754600E+05 -1.240771E-12 -9.098987E-13
        53  16 -5.823076E+05 -1.714920E+05 -1.507599E+05  1.722303E+05  3.308722E-13  0.000000E+00
        53  17 -5.738595E+05 -1.791146E+05 -1.505948E+05  1.737971E+05  0.000000E+00  3.308722E-13
        53  18 -5.677732E+05 -1.891752E+05 -1.513897E+05  1.768490E+05  4.963084E-13 -2.481542E-13
        53  19 -5.422095E+05 -1.761255E+05 -1.436670E+05  1.709700E+05  8.271806E-13  2.150670E-12
        53  20 -5.334839E+05 -1.870453E+05 -1.441058E+05  1.718392E+05 -3.970467E-12 -1.240771E-12
        53  21 -5.266113E+05 -1.988748E+05 -1.450972E+05  1.740158E+05 -2.812414E-12  6.782881E-12
        53  22 -5.631967E+05 -1.741983E+05 -1.474790E+05  1.713038E+05  2.646978E-12  2.646978E-12
        53  23 -5.543690E+05 -1.832491E+05 -1.475236E+05  1.727009E+05  6.617445E-13  1.323489E-12
        53  24 -5.476603E+05 -1.939354E+05 -1.483191E+05  1.754600E+05 -4.797648E-12 -2.150670E-12
        53  25 -5.823076E+05 -1.714920E+05 -1.507599E+05  1.722303E+05  1.323489E-12  0.000000E+00
        53  26 -5.738595E+05 -1.791146E+05 -1.505948E+05  1.737971E+05 -5.293956E-12 -6.617445E-13
        53  27 -5.677732E+05 -1.891752E+05 -1.513897E+05  1.768490E+05 -5.459392E-12 -3.143286E-12
        54   1 -5.213022E+05 -2.068445E+05 -1.456294E+05  1.756508E+05  1.455838E-11  2.646978E-12
        54   2 -5.143950E+05 -2.207631E+05 -1.470316E+05  1.804345E+05  4.466775E-12 -8.271806E-12
        54   3 -5.096027E+05 -2.360667E+05 -1.491339E+05  1.867204E+05  1.985233E-12 -9.926167E-12
        54   4 -5.428947E+05 -2.014971E+05 -1.488784E+05  1.771340E+05  6.617445E-12 -1.323489E-12
        54   5 -5.347523E+05 -2.142007E+05 -1.497906E+05  1.824453E+05 -1.124966E-11  6.617445E-13
        54   6 -5.291080E+05 -2.289449E+05 -1.516106E+05  1.893728E+05  1.654361E-13 -2.481542E-12
        54   7 -5.635513E+05 -1.957563E+05 -1.518615E+05  1.789331E+05  7.940934E-12  2.646978E-12
        54   8 -5.543414E+05 -2.078699E+05 -1.524423E+05  1.844844E+05  9.264423E-12  1.323489E-12
        54   9 -5.480547E+05 -2.227074E+05 -1.541524E+05  1.918235E+05  9.926167E-13 -1.985233E-12
        54  10 -5.213022E+05 -2.068445E+05 -1.456294E+05  1.756508E+05  6.617445E-13  3.308722E-13
        54  11 -5.143950E+05 -2.207631E+05 -1.470316E+05  1.804345E+05  1.654361E-13 -1.654361E-12
        54  12 -5.096027E+05 -2.360667E+05 -1.491339E+05  1.867204E+05 -1.282130E-12 -4.549493E-13
        54  13 -5.428947E+05 -2.014971E+05 -1.488784E+05  1.771340E+05  0.000000E+00  6.617445E-13
        54  14 -5.347523E+05 -2.142007E+05 -1.497906E+05  1.824453E+05 -6.617445E-13  6.617445E-13
        54  15 -5.291080E+05 -2.289449E+05 -1.516106E+05  1.893728E+05  8.271806E-13  5.790264E-13
        54  16 -5.635513E+05 -1.957563E+05 -1.518615E+05  1.789331E+05 -3.308722E-13  6.617445E-13
        54  17 -5.543414E+05 -2.078699E+05 -1.524423E+05  1.844844E+05 -6.617445E-13  6.617445E-13
        54  18 -5.480547E+05 -2.227074E+05 -1.541524E+05  1.918235E+05  0.000000E+00  1.240771E-13
        54  19 -5.213022E+05 -2.068445E+05 -1.456294E+05  1.756508E+05 -3.970467E-12  2.646978E-12
        54  20 -5.143950E+05 -2.207631E+05 -1.470316E+05  1.804345E+05 -4.466775E-12 -7.610062E-12
        54  21 -5.096027E+05 -2.360667E+05 -1.491339E+05  1.867204E+05 -1.985233E-12  1.522012E-11
        54  22 -5.428947E+05 -2.014971E+05 -1.488784E+05  1.771340E+05 -1.323489E-12  1.323489E-12
        54  23 -5.347523E+05 -2.142007E+05 -1.497906E+05  1.824453E+05  5.955700E-12 -6.617445E-13
        54  24 -5.291080E+05 -2.289449E+05 -1.516106E+05  1.893728E+05 -5.459392E-12  2.481542E-12
        54  25 -5.635513E+05 -1.957563E+05 -1.518615E+05  1.789331E+05  0.000000E+00 -2.646978E-12
        54  26 -5.543414E+05 -2.078699E+05 -1.524423E+05  1.844844E+05 -3.970467E-12  6.617445E-12
        54  27 -5.480547E+05 -2.227074E+05 -1.541524E+05  1.918235E+05  4.301339E-12  4.632211E-12
        55   1 -5.729723E+05 -1.927643E+05 -1.531473E+05  1.795203E+05 -1.323489E-12 -5.790264E-12
        55   2 -5.635735E+05 -2.046016E+05 -1.536350E+05  1.851829E+05  4.963084E-12 -1.488925E-12
        55   3 -5.561793E+05 -2.179153E+05 -1.548189E+05  1.919460E+05 -2.895132E-12  8.106370E-12
        55   4 -5.839192E+05 -1.894139E+05 -1.546666E+05  1.791582E+05 -1.323489E-12  1.323489E-12
        55   5 -5.728160E+05 -1.999667E+05 -1.545566E+05  1.840088E+05 -1.985233E-12 -3.970467E-12
        55   6 -5.642185E+05 -2.125782E+05 -1.553593E+05  1.902170E+05 -1.323489E-12 -4.963084E-13
        55   7 -5.954621E+05 -1.852955E+05 -1.561515E+05  1.791564E+05  5.293956E-12  3.970467E-12
        55   8 -5.825113E+05 -1.953392E+05 -1.555701E+05  1.827532E+05  1.323489E-12  1.985233E-12
        55   9 -5.726993E+05 -2.080173E+05 -1.561433E+05  1.880950E+05  6.617445E-13 -6.617445E-13
        55  10 -5.729723E+05 -1.927643E+05 -1.531473E+05  1.795203E+05 -3.308722E-13  0.000000E+00
        55  11 -5.635735E+05 -2.046016E+05 -1.536350E+05  1.851829E+05  0.000000E+00  0.000000E+00
        55  12 -5.561793E+05 -2.179153E+05 -1.548189E+05  1.919460E+05  6.203855E-13 -4.135903E-14
        55  13 -5.839192E+05 -1.894139E+05 -1.546666E+05  1.791582E+05  6.617445E-13  6.617445E-13
        55  14 -5.728160E+05 -1.999667E+05 -1.545566E+05  1.840088E+05 -6.617445E-13  6.617445E-13
        55  15 -5.642185E+05 -2.125782E+05 -1.553593E+05  1.902170E+05  4.963084E-13  1.654361E-12
        55  16 -5.954621E+05 -1.852955E+05 -1.561515E+05  1.791564E+05  0.000000E+00 -9.926167E-13
        55  17 -5.825113E+05 -1.953392E+05 -1.555701E+05  1.827532E+05 -1.654361E-12 -1.654361E-13
        55  18 -5.726993E+05 -2.080173E+05 -1.561433E+05  1.880950E+05 -9.098987E-13 -4.549493E-13
        55  19 -5.729723E+05 -1.927643E+05 -1.531473E+05  1.795203E+05 -1.323489E-12  5.790264E-12
        55  20 -5.635735E+05 -2.046016E+05 -1.536350E+05  1.851829E+05 -4.963084E-12 -3.805031E-12
        55  21 -5.561793E+05 -2.179153E+05 -1.548189E+05  1.919460E+05 -2.398824E-12  2.481542E-12
        55  22 -5.839192E+05 -1.894139E+05 -1.546666E+05  1.791582E+05  1.323489E-12 -1.323489E-12
        55  23 -5.728160E+05 -1.999667E+05 -1.545566E+05  1.840088E+05  1.985233E-12  1.323489E-12
        55  24 -5.642185E+05 -2.125782E+05 -1.553593E+05  1.902170E+05 -3.970467E-12 -2.150670E-12
        55  25 -5.954621E+05 -1.852955E+05 -1.561515E+05  1.791564E+05 -5.293956E-12  1.323489E-12
        55  26 -5.825113E+05 -1.953392E+05 -1.555701E+05  1.827532E+05  3.970467E-12  3.308722E-12
        55  27 -5.726993E+05 -2.080173E+05 -1.561433E+05  1.880950E+05 -3.308722E-12 -4.632211E-12
        56   1 -5.915843E+05 -1.707660E+05 -1.524701E+05  1.727528E+05  2.977850E-12 -2.316106E-12
        56   2 -5.834509E+05 -1.783199E+05 -1.523542E+05  1.745739E+05  1.654361E-13  4.466775E-12
        56   3 -5.772432E+05 -1.868037E+05 -1.528094E+05  1.773431E+05 -1.943874E-12  1.323489E-12
        56   4 -6.041783E+05 -1.702868E+05 -1.548930E+05  1.726257E+05 -1.323489E-12  0.000000E+00
        56   5 -5.955461E+05 -1.764337E+05 -1.543960E+05  1.743985E+05 -4.632211E-12  2.646978E-12
        56   6 -5.891918E+05 -1.840367E+05 -1.546457E+05  1.772670E+05  2.481542E-13 -1.323489E-12
        56   7 -6.156287E+05 -1.692436E+05 -1.569745E+05  1.729613E+05 -2.646978E-12  3.970467E-12
        56   8 -6.068106E+05 -1.744676E+05 -1.562556E+05  1.742639E+05  4.632211E-12 -1.985233E-12
        56   9 -6.006518E+05 -1.817135E+05 -1.564731E+05  1.769421E+05 -1.654361E-13 -1.158053E-12
        56  10 -5.915843E+05 -1.707660E+05 -1.524701E+05  1.727528E+05 -3.308722E-13  3.308722E-13
        56  11 -5.834509E+05 -1.783199E+05 -1.523542E+05  1.745739E+05 -3.308722E-13 -5.790264E-13
        56  12 -5.772432E+05 -1.868037E+05 -1.528094E+05  1.773431E+05 -3.722313E-13 -3.722313E-13
        56  13 -6.041783E+05 -1.702868E+05 -1.548930E+05  1.726257E+05 -6.617445E-13  0.000000E+00
        56  14 -5.955461E+05 -1.764337E+05 -1.543960E+05  1.743985E+05  6.617445E-13 -6.617445E-13
        56  15 -5.891918E+05 -1.840367E+05 -1.546457E+05  1.772670E+05  9.098987E-13  2.067952E-13
        56  16 -6.156287E+05 -1.692436E+05 -1.569745E+05  1.729613E+05  3.308722E-13  0.000000E+00
        56  17 -6.068106E+05 -1.744676E+05 -1.562556E+05  1.742639E+05 -9.926167E-13 -8.271806E-14
        56  18 -6.006518E+05 -1.817135E+05 -1.564731E+05  1.769421E+05  0.000000E+00 -1.033976E-13
        56  19 -5.915843E+05 -1.707660E+05 -1.524701E+05  1.727528E+05 -2.977850E-12  9.926167E-13
        56  20 -5.834509E+05 -1.783199E+05 -1.523542E+05  1.745739E+05 -5.459392E-12 -4.466775E-12
        56  21 -5.772432E+05 -1.868037E+05 -1.528094E+05  1.773431E+05  1.943874E-12  1.323489E-12
        56  22 -6.041783E+05 -1.702868E+05 -1.548930E+05  1.726257E+05 -3.970467E-12  0.000000E+00
        56  23 -5.955461E+05 -1.764337E+05 -1.543960E+05  1.743985E+05 -6.617445E-13 -2.646978E-12
        56  24 -5.891918E+05 -1.840367E+05 -1.546457E+05  1.772670E+05 -2.481542E-13  6.617445E-12
        56  25 -6.156287E+05 -1.692436E+05 -1.569745E+05  1.729613E+05 -2.646978E-12  0.000000E+00
        56  26 -6.068106E+05 -1.744676E+05 -1.562556E+05  1.742639E+05 -4.632211E-12  6.617445E-13
        56  27 -6.006518E+05 -1.817135E+05 -1.564731E+05  1.769421E+05 -5.128520E-12  1.158053E-12
        57   1  2.212504E+04 -2.053097E+05 -3.663692E+04  2.131410E+05  0.000000E+00 -9.926167E-13
        57   2 -7.539585E+04 -2.356979E+05 -6.221876E+04  1.653920E+05  2.150670E-12  4.963084E-12
        57   3 -1.538762E+05 -2.351064E+05 -7.779652E+04  1.325207E+05  1.602662E-12 -8.395883E-12
        57   4 -8.331029E+04 -2.052838E+05 -5.771881E+04  2.010335E+05  3.970467E-12 -3.970467E-12
        57   5 -1.399794E+05 -2.374924E+05 -7.549435E+04  1.691079E+05  3.308722E-13  6.617445E-12
        57   6 -1.759872E+05 -2.373477E+05 -8.266698E+04  1.530947E+05  1.654361E-12  4.301339E-12
        57   7 -1.600829E+05 -2.138872E+05 -7.479402E+04  1.800835E+05  1.323489E-12 -5.293956E-12
        57   8 -1.740145E+05 -2.486613E+05 -8.453516E+04  1.639073E+05  1.323489E-12 -1.323489E-12
        57   9 -1.655511E+05 -2.496886E+05 -8.304796E+04  1.647093E+05  2.398824E-12  2.316106E-12
        57  10  2.212504E+04 -2.053097E+05 -3.663692E+04  2.131410E+05  0.000000E+00  6.617445E-13
        57  11 -7.539585E+04 -2.356979E+05 -6.221876E+04  1.653920E+05 -3.308722E-13 -6.617445E-13
        57  12 -1.538762E+05 -2.351064E+05 -7.779652E+04  1.325207E+05  3.101927E-13  2.481542E-13
        57  13 -8.331029E+04 -2.052838E+05 -5.771881E+04  2.010335E+05  0.000000E+00 -1.323489E-12
        57  14 -1.399794E+05 -2.374924E+05 -7.549435E+04  1.691079E+05  4.963084E-13  0.000000E+00
        57  15 -1.759872E+05 -2.373477E+05 -8.266698E+04  1.530947E+05  1.240771E-13  4.963084E-13
        57  16 -1.600829E+05 -2.138872E+05 -7.479402E+04  1.800835E+05  0.000000E+00 -1.323489E-12
        57  17 -1.740145E+05 -2.486613E+05 -8.453516E+04  1.639073E+05  3.308722E-13  1.654361E-12
        57  18 -1.655511E+05 -2.496886E+05 -8.304796E+04  1.647093E+05  0.000000E+00  6.617445E-13
        57  19  2.212504E+04 -2.053097E+05 -3.663692E+04  2.131410E+05  0.000000E+00  9.926167E-13
        57  20 -7.539585E+04 -2.356979E+05 -6.221876E+04  1.653920E+05 -2.150670E-12  5.624828E-12
        57  21 -1.538762E+05 -2.351064E+05 -7.779652E+04  1.325207E+05  1.044316E-12  3.101927E-12
        57  22 -8.331029E+04 -2.052838E+05 -5.771881E+04  2.010335E+05 -2.646978E-12  3.970467E-12
        57  23 -1.399794E+05 -2.374924E+05 -7.549435E+04  1.691079E+05  9.926167E-13 -1.323489E-12
        57  24 -1.759872E+05 -2.373477E+05 -8.266698E+04  1.530947E+05 -4.301339E-12 -4.301339E-12
        57  25 -1.600829E+05 -2.138872E+05 -7.479402E+04  1.800835E+05  0.000000E+00  0.000000E+00
        57  26 -1.740145E+05 -2.486613E+05 -8.453516E+04  1.639073E+05  0.000000E+00  6.617445E-12
        57  27 -1.655511E+05 -2.496886E+05 -8.304796E+04  1.647093E+05 -1.075335E-12 -4.963084E-12
        58   1 -1.855441E+05 -2.442672E+05 -8.596226E+04  1.333210E+05 -3.308722E-13 -9.926167E-13
        58   2 -2.087247E+05 -2.407367E+05 -8.989227E+04  1.404536E+05  1.075335E-12 -5.459392E-12
        58   3 -2.288863E+05 -2.339617E+05 -9.256960E+04  1.500299E+05  4.342698E-12 -1.447566E-12
        58   4 -1.763611E+05 -2.456405E+05 -8.440032E+04  1.508785E+05  2.977850E-12  1.323489E-12
        58   5 -1.989350E+05 -2.457954E+05 -8.894608E+04  1.537779E+05 -3.308722E-13  4.632211E-12
        58   6 -2.184433E+05 -2.426975E+05 -9.222816E+04  1.590875E+05  1.323489E-12 -7.444626E-12
        58   7 -1.731818E+05 -2.470361E+05 -8.404359E+04  1.705164E+05  0.000000E+00  0.000000E+00
        58   8 -1.952762E+05 -2.509646E+05 -8.924816E+04  1.691713E+05  6.617445E-13  5.293956E-12
        58   9 -2.142610E+05 -2.516347E+05 -9.317913E+04  1.702016E+05  1.406207E-12  4.632211E-12
        58  10 -1.855441E+05 -2.442672E+05 -8.596226E+04  1.333210E+05 -3.308722E-13  0.000000E+00
        58  11 -2.087247E+05 -2.407367E+05 -8.989227E+04  1.404536E+05  4.963084E-13  0.000000E+00
        58  12 -2.288863E+05 -2.339617E+05 -9.256960E+04  1.500299E+05 -2.481542E-13 -2.481542E-13
        58  13 -1.763611E+05 -2.456405E+05 -8.440032E+04  1.508785E+05 -3.308722E-13  0.000000E+00
        58  14 -1.989350E+05 -2.457954E+05 -8.894608E+04  1.537779E+05  1.654361E-13 -1.323489E-12
        58  15 -2.184433E+05 -2.426975E+05 -9.222816E+04  1.590875E+05  1.240771E-13 -4.963084E-13
        58  16 -1.731818E+05 -2.470361E+05 -8.404359E+04  1.705164E+05  1.654361E-13  0.000000E+00
        58  17 -1.952762E+05 -2.509646E+05 -8.924816E+04  1.691713E+05  8.271806E-14  6.617445E-13
        58  18 -2.142610E+05 -2.516347E+05 -9.317913E+04  1.702016E+05 -1.033976E-13 -4.135903E-13
        58  19 -1.855441E+05 -2.442672E+05 -8.596226E+04  1.333210E+05  3.308722E-13  9.926167E-13
        58  20 -2.087247E+05 -2.407367E+05 -8.989227E+04  1.404536E+05 -2.398824E-12  1.654361E-13
        58  21 -2.288863E+05 -2.339617E+05 -9.256960E+04  1.500299E+05 -3.019209E-12  1.447566E-12
        58  22 -1.763611E+05 -2.456405E+05 -8.440032E+04  1.508785E+05 -2.977850E-12  1.323489E-12
        58  23 -1.989350E+05 -2.457954E+05 -8.894608E+04  1.537779E+05  3.308722E-13  6.617445E-13
        58  24 -2.184433E+05 -2.426975E+05 -9.222816E+04  1.590875E+05 -1.323489E-12 -4.963084E-13
        58  25 -1.731818E+05 -2.470361E+05 -8.404359E+04  1.705164E+05  0.000000E+00  0.000000E+00
        58  26 -1.952762E+05 -2.509646E+05 -8.924816E+04  1.691713E+05 -1.985233E-12  0.000000E+00
        58  27 -2.142610E+05 -2.516347E+05 -9.317913E+04  1.702016E+05 -1.406207E-12 -4.632211E-12
        59   1 -1.892923E+05 -2.557977E+05 -8.901800E+04  1.660376E+05 -9.098987E-13  1.323489E-12
        59   2 -2.034335E+05 -2.579693E+05 -9.228057E+04  1.698078E+05  3.184645E-12  3.308722E-12
        59   3 -2.159915E+05 -2.553311E+05 -9.426450E+04  1.747637E+05 -8.271806E-14 -1.902515E-12
        59   4 -1.927794E+05 -2.642471E+05 -9.140531E+04  1.665145E+05  1.323489E-12 -2.646978E-12
        59   5 -2.026888E+05 -2.643974E+05 -9.341724E+04  1.747636E+05  2.481542E-12  2.646978E-12
        59   6 -2.108118E+05 -2.594281E+05 -9.404798E+04  1.843786E+05 -1.737079E-12  2.150670E-12
        59   7 -1.922973E+05 -2.775075E+05 -9.396097E+04  1.668553E+05  0.000000E+00  0.000000E+00
        59   8 -1.977670E+05 -2.758459E+05 -9.472258E+04  1.796783E+05  1.323489E-12  0.000000E+00
        59   9 -2.012328E+05 -2.687517E+05 -9.399689E+04  1.940569E+05  8.271806E-13  3.308722E-12
        59  10 -1.892923E+05 -2.557977E+05 -8.901800E+04  1.660376E+05 -8.271806E-14  3.308722E-13
        59  11 -2.034335E+05 -2.579693E+05 -9.228057E+04  1.698078E+05  4.135903E-14 -1.654361E-13
        59  12 -2.159915E+05 -2.553311E+05 -9.426450E+04  1.747637E+05  1.344168E-13  8.271806E-14
        59  13 -1.927794E+05 -2.642471E+05 -9.140531E+04  1.665145E+05  0.000000E+00 -6.617445E-13
        59  14 -2.026888E+05 -2.643974E+05 -9.341724E+04  1.747636E+05 -1.654361E-13  6.617445E-13
        59  15 -2.108118E+05 -2.594281E+05 -9.404798E+04  1.843786E+05  2.895132E-13 -4.135903E-13
        59  16 -1.922973E+05 -2.775075E+05 -9.396097E+04  1.668553E+05  1.654361E-13  3.308722E-13
        59  17 -1.977670E+05 -2.758459E+05 -9.472258E+04  1.796783E+05  1.240771E-13 -8.271806E-13
        59  18 -2.012328E+05 -2.687517E+05 -9.399689E+04  1.940569E+05  6.203855E-14 -4.963084E-13
        59  19 -1.892923E+05 -2.557977E+05 -8.901800E+04  1.660376E+05 -1.737079E-12 -3.970467E-12
        59  20 -2.034335E+05 -2.579693E+05 -9.228057E+04  1.698078E+05 -5.376674E-13  1.985233E-12
        59  21 -2.159915E+05 -2.553311E+05 -9.426450E+04  1.747637E+05 -2.564260E-12  4.549493E-12
        59  22 -1.927794E+05 -2.642471E+05 -9.140531E+04  1.665145E+05 -1.323489E-12  2.646978E-12
        59  23 -2.026888E+05 -2.643974E+05 -9.341724E+04  1.747636E+05  1.654361E-13 -2.646978E-12
        59  24 -2.108118E+05 -2.594281E+05 -9.404798E+04  1.843786E+05 -2.481542E-13 -2.150670E-12
        59  25 -1.922973E+05 -2.775075E+05 -9.396097E+04  1.668553E+05  0.000000E+00 -2.646978E-12
        59  26 -1.977670E+05 -2.758459E+05 -9.472258E+04  1.796783E+05  6.617445E-13  2.646978E-12
        59  27 -2.012328E+05 -2.687517E+05 -9.399689E+04  1.940569E+05 -1.654361E-13  1.985233E-12
        60   1 -1.767236E+05 -2.268061E+05 -8.070594E+04  1.743443E+05  9.098987E-13 -5.293956E-12
        60   2 -1.707770E+05 -2.396538E+05 -8.208615E+04  1.697254E+05 -1.406207E-12  8.271806E-13
        60   3 -1.679416E+05 -2.541868E+05 -8.442568E+04  1.627671E+05 -2.150670E-12 -1.273858E-11
        60   4 -1.893778E+05 -2.390261E+05 -8.568078E+04  1.670610E+05  2.977850E-12 -5.293956E-12
        60   5 -1.851996E+05 -2.501999E+05 -8.707991E+04  1.670327E+05  0.000000E+00  1.985233E-12
        60   6 -1.842077E+05 -2.630650E+05 -8.945455E+04  1.647066E+05  7.858216E-13 -1.323489E-12
        60   7 -1.960974E+05 -2.506745E+05 -8.935438E+04  1.574067E+05  6.617445E-13  1.323489E-11
        60   8 -1.936037E+05 -2.601373E+05 -9.074820E+04  1.619955E+05 -6.617445E-13 -5.293956E-12
        60   9 -1.943708E+05 -2.712963E+05 -9.313343E+04  1.643303E+05  3.308722E-13  2.977850E-12
        60  10 -1.767236E+05 -2.268061E+05 -8.070594E+04  1.743443E+05  1.654361E-13 -1.323489E-12
        60  11 -1.707770E+05 -2.396538E+05 -8.208615E+04  1.697254E+05  2.481542E-13  0.000000E+00
        60  12 -1.679416E+05 -2.541868E+05 -8.442568E+04  1.627671E+05  6.203855E-14  2.067952E-13
        60  13 -1.893778E+05 -2.390261E+05 -8.568078E+04  1.670610E+05  0.000000E+00  0.000000E+00
        60  14 -1.851996E+05 -2.501999E+05 -8.707991E+04  1.670327E+05 -3.308722E-13  1.985233E-12
        60  15 -1.842077E+05 -2.630650E+05 -8.945455E+04  1.647066E+05 -4.135903E-14 -9.926167E-13
        60  16 -1.960974E+05 -2.506745E+05 -8.935438E+04  1.574067E+05 -8.271806E-14  3.308722E-13
        60  17 -1.936037E+05 -2.601373E+05 -9.074820E+04  1.619955E+05 -1.240771E-13  0.000000E+00
        60  18 -1.943708E+05 -2.712963E+05 -9.313343E+04  1.643303E+05  7.237830E-14  4.549493E-13
        60  19 -1.767236E+05 -2.268061E+05 -8.070594E+04  1.743443E+05 -2.233388E-12 -1.058791E-11
        60  20 -1.707770E+05 -2.396538E+05 -8.208615E+04  1.697254E+05  1.406207E-12 -8.271806E-13
        60  21 -1.679416E+05 -2.541868E+05 -8.442568E+04  1.627671E+05 -1.819797E-12  7.444626E-12
        60  22 -1.893778E+05 -2.390261E+05 -8.568078E+04  1.670610E+05 -1.654361E-12  5.293956E-12
        60  23 -1.851996E+05 -2.501999E+05 -8.707991E+04  1.670327E+05  0.000000E+00  3.308722E-12
        60  24 -1.842077E+05 -2.630650E+05 -8.945455E+04  1.647066E+05 -1.447566E-12 -1.323489E-12
        60  25 -1.960974E+05 -2.506745E+05 -8.935438E+04  1.574067E+05 -6.617445E-13 -7.940934E-12
        60  26 -1.936037E+05 -2.601373E+05 -9.074820E+04  1.619955E+05 -6.617445E-13  2.646978E-12
        60  27 -1.943708E+05 -2.712963E+05 -9.313343E+04  1.643303E+05 -3.308722E-13 -2.977850E-12
        61   1 -3.578066E+05 -2.779484E+05 -1.271510E+05  1.238181E+05  7.279189E-12 -1.323489E-11
        61   2 -3.756668E+05 -2.769944E+05 -1.305322E+05  1.396236E+05  6.948317E-12 -2.283018E-11
        61   3 -3.950733E+05 -2.774081E+05 -1.344963E+05  1.542837E+05 -4.963084E-13  5.376674E-12
        61   4 -3.587523E+05 -2.810632E+05 -1.279631E+05  1.241890E+05  0.000000E+00 -5.293956E-12
        61   5 -3.789432E+05 -2.783851E+05 -1.314657E+05  1.399881E+05  9.264423E-12  2.646978E-12
        61   6 -4.006596E+05 -2.768395E+05 -1.354998E+05  1.546798E+05 -5.624828E-12  1.389663E-11
        61   7 -3.589538E+05 -2.802009E+05 -1.278309E+05  1.250679E+05 -5.293956E-12  1.058791E-11
        61   8 -3.813761E+05 -2.757279E+05 -1.314208E+05  1.409551E+05  1.852885E-11  2.117582E-11
        61   9 -4.052916E+05 -2.721723E+05 -1.354928E+05  1.557813E+05  1.985233E-12  1.058791E-11
        61  10 -3.578066E+05 -2.779484E+05 -1.271510E+05  1.238181E+05  0.000000E+00  0.000000E+00
        61  11 -3.756668E+05 -2.769944E+05 -1.305322E+05  1.396236E+05  9.926167E-13 -2.646978E-12
        61  12 -3.950733E+05 -2.774081E+05 -1.344963E+05  1.542837E+05 -2.150670E-12  3.308722E-13
        61  13 -3.587523E+05 -2.810632E+05 -1.279631E+05  1.241890E+05  1.323489E-12  0.000000E+00
        61  14 -3.789432E+05 -2.783851E+05 -1.314657E+05  1.399881E+05 -1.323489E-12  5.293956E-12
        61  15 -4.006596E+05 -2.768395E+05 -1.354998E+05  1.546798E+05 -1.819797E-12  0.000000E+00
        61  16 -3.589538E+05 -2.802009E+05 -1.278309E+05  1.250679E+05  0.000000E+00 -1.323489E-12
        61  17 -3.813761E+05 -2.757279E+05 -1.314208E+05  1.409551E+05  1.985233E-12  3.308722E-12
        61  18 -4.052916E+05 -2.721723E+05 -1.354928E+05  1.557813E+05  8.271806E-14  1.488925E-12
        61  19 -3.578066E+05 -2.779484E+05 -1.271510E+05  1.238181E+05 -1.786710E-11  2.646978E-12
        61  20 -3.756668E+05 -2.769944E+05 -1.305322E+05  1.396236E+05  3.639595E-12  2.283018E-11
        61  21 -3.950733E+05 -2.774081E+05 -1.344963E+05  1.542837E+05  4.963084E-13  5.211238E-12
        61  22 -3.587523E+05 -2.810632E+05 -1.279631E+05  1.241890E+05  0.000000E+00  5.293956E-12
        61  23 -3.789432E+05 -2.783851E+05 -1.314657E+05  1.399881E+05  1.323489E-12  7.940934E-12
        61  24 -4.006596E+05 -2.768395E+05 -1.354998E+05  1.546798E+05 -4.963084E-12 -3.308722E-12
        61  25 -3.589538E+05 -2.802009E+05 -1.278309E+05  1.250679E+05  5.293956E-12 -2.117582E-11
        61  26 -3.813761E+05 -2.757279E+05 -1.314208E+05  1.409551E+05 -7.940934E-12  1.058791E-11
        61  27 -4.052916E+05 -2.721723E+05 -1.354928E+05  1.557813E+05 -7.279189E-12 -5.293956E-12
        62   1 -4.070456E+05 -2.767894E+05 -1.367670E+05  1.626471E+05 -2.646978E-12 -4.632211E-12
        62   2 -4.282599E+05 -2.773139E+05 -1.411148E+05  1.768778E+05  8.271806E-12 -1.389663E-11
        62   3 -4.489710E+05 -2.784343E+05 -1.454811E+05  1.905217E+05 -5.211238E-12 -3.060568E-12
        62   4 -4.135471E+05 -2.757773E+05 -1.378649E+05  1.629205E+05  0.000000E+00 -7.940934E-12
        62   5 -4.352974E+05 -2.756559E+05 -1.421906E+05  1.766910E+05  3.970467E-12 -2.646978E-12
        62   6 -4.564927E+05 -2.759912E+05 -1.464968E+05  1.897928E+05  1.654361E-12 -1.224227E-11
        62   7 -4.191355E+05 -2.711164E+05 -1.380504E+05  1.630414E+05  5.293956E-12 -5.293956E-12
        62   8 -4.413934E+05 -2.701319E+05 -1.423051E+05  1.764337E+05  1.323489E-11  0.000000E+00
        62   9 -4.630478E+05 -2.694492E+05 -1.464994E+05  1.891023E+05 -5.293956E-12 -4.632211E-12
        62  10 -4.070456E+05 -2.767894E+05 -1.367670E+05  1.626471E+05 -6.617445E-13 -1.323489E-12
        62  11 -4.282599E+05 -2.773139E+05 -1.411148E+05  1.768778E+05 -2.646978E-12 -6.617445E-13
        62  12 -4.489710E+05 -2.784343E+05 -1.454811E+05  1.905217E+05  0.000000E+00 -7.444626E-13
        62  13 -4.135471E+05 -2.757773E+05 -1.378649E+05  1.629205E+05  0.000000E+00  2.646978E-12
        62  14 -4.352974E+05 -2.756559E+05 -1.421906E+05  1.766910E+05  0.000000E+00  3.970467E-12
        62  15 -4.564927E+05 -2.759912E+05 -1.464968E+05  1.897928E+05  2.316106E-12 -9.926167E-13
        62  16 -4.191355E+05 -2.711164E+05 -1.380504E+05  1.630414E+05 -6.617445E-13  1.323489E-12
        62  17 -4.413934E+05 -2.701319E+05 -1.423051E+05  1.764337E+05 -1.323489E-12  3.970467E-12
        62  18 -4.630478E+05 -2.694492E+05 -1.464994E+05  1.891023E+05  0.000000E+00  8.271806E-13
        62  19 -4.070456E+05 -2.767894E+05 -1.367670E+05  1.626471E+05 -2.646978E-12  4.632211E-12
        62  20 -4.282599E+05 -2.773139E+05 -1.411148E+05  1.768778E+05  2.316106E-12  3.308722E-12
        62  21 -4.489710E+05 -2.784343E+05 -1.454811E+05  1.905217E+05 -1.067063E-11  3.060568E-12
        62  22 -4.135471E+05 -2.757773E+05 -1.378649E+05  1.629205E+05 -2.117582E-11 -1.323489E-11
        62  23 -4.352974E+05 -2.756559E+05 -1.421906E+05  1.766910E+05 -3.970467E-12 -7.940934E-12
        62  24 -4.564927E+05 -2.759912E+05 -1.464968E+05  1.897928E+05 -6.948317E-12  6.948317E-12
        62  25 -4.191355E+05 -2.711164E+05 -1.380504E+05  1.630414E+05 -5.293956E-12  0.000000E+00
        62  26 -4.413934E+05 -2.701319E+05 -1.423051E+05  1.764337E+05 -1.323489E-11  1.058791E-11
        62  27 -4.630478E+05 -2.694492E+05 -1.464994E+05  1.891023E+05 -1.588187E-11 -5.955700E-12
        63   1 -4.222833E+05 -2.661096E+05 -1.376786E+05  1.638574E+05  3.970467E-12  6.617445E-12
        63   2 -4.471046E+05 -2.659968E+05 -1.426203E+05  1.759845E+05  1.091878E-11 -1.952146E-11
        63   3 -4.686815E+05 -2.651043E+05 -1.467571E+05  1.882701E+05 -3.308722E-13 -1.488925E-11
        63   4 -4.344878E+05 -2.561149E+05 -1.381205E+05  1.649979E+05  7.940934E-12  7.940934E-12
        63   5 -4.589566E+05 -2.564906E+05 -1.430894E+05  1.758966E+05 -9.264423E-12  1.323489E-12
        63   6 -4.803365E+05 -2.561520E+05 -1.472977E+05  1.867300E+05  5.293956E-12  5.293956E-12
        63   7 -4.461566E+05 -2.439886E+05 -1.380290E+05  1.657219E+05  5.293956E-12 -1.588187E-11
        63   8 -4.702654E+05 -2.445752E+05 -1.429681E+05  1.754849E+05  2.646978E-12 -2.646978E-12
        63   9 -4.914195E+05 -2.444645E+05 -1.471768E+05  1.850013E+05 -7.940934E-12 -1.985233E-12
        63  10 -4.222833E+05 -2.661096E+05 -1.376786E+05  1.638574E+05  0.000000E+00  0.000000E+00
        63  11 -4.471046E+05 -2.659968E+05 -1.426203E+05  1.759845E+05  0.000000E+00  1.985233E-12
        63  12 -4.686815E+05 -2.651043E+05 -1.467571E+05  1.882701E+05  1.571643E-12  9.926167E-13
        63  13 -4.344878E+05 -2.561149E+05 -1.381205E+05  1.649979E+05 -1.323489E-12 -2.646978E-12
        63  14 -4.589566E+05 -2.564906E+05 -1.430894E+05  1.758966E+05 -1.323489E-12 -3.970467E-12
        63  15 -4.803365E+05 -2.561520E+05 -1.472977E+05  1.867300E+05  3.308722E-13 -2.481542E-12
        63  16 -4.461566E+05 -2.439886E+05 -1.380290E+05  1.657219E+05 -6.617445E-13  1.323489E-12
        63  17 -4.702654E+05 -2.445752E+05 -1.429681E+05  1.754849E+05 -1.654361E-12 -1.985233E-12
        63  18 -4.914195E+05 -2.444645E+05 -1.471768E+05  1.850013E+05  4.135903E-13  4.963084E-13
        63  19 -4.222833E+05 -2.661096E+05 -1.376786E+05  1.638574E+05 -3.970467E-12 -1.323489E-12
        63  20 -4.471046E+05 -2.659968E+05 -1.426203E+05  1.759845E+05 -3.308722E-13 -1.654361E-12
        63  21 -4.686815E+05 -2.651043E+05 -1.467571E+05  1.882701E+05 -4.963084E-12 -6.286573E-12
        63  22 -4.344878E+05 -2.561149E+05 -1.381205E+05  1.649979E+05  2.646978E-12  7.940934E-12
        63  23 -4.589566E+05 -2.564906E+05 -1.430894E+05  1.758966E+05 -1.323489E-12 -1.191140E-11
        63  24 -4.803365E+05 -2.561520E+05 -1.472977E+05  1.867300E+05 -5.293956E-12  5.293956E-12
        63  25 -4.461566E+05 -2.439886E+05 -1.380290E+05  1.657219E+05 -5.293956E-12  1.588187E-11
        63  26 -4.702654E+05 -2.445752E+05 -1.429681E+05  1.754849E+05  2.646978E-12  7.940934E-12
        63  27 -4.914195E+05 -2.444645E+05 -1.471768E+05  1.850013E+05  7.940934E-12  1.257315E-11
        64   1 -3.600651E+05 -2.778043E+05 -1.275739E+05  1.270910E+05  1.158053E-11 -2.646978E-12
        64   2 -3.856271E+05 -2.730370E+05 -1.317328E+05  1.421956E+05  1.158053E-12 -1.654361E-12
        64   3 -4.085660E+05 -2.679523E+05 -1.353037E+05  1.567593E+05  3.515518E-12 -1.670905E-11
        64   4 -3.642537E+05 -2.700686E+05 -1.268645E+05  1.329874E+05 -7.940934E-12  0.000000E+00
        64   5 -3.930361E+05 -2.645695E+05 -1.315211E+05  1.458426E+05  1.323489E-12  1.588187E-11
        64   6 -4.197942E+05 -2.588066E+05 -1.357202E+05  1.579510E+05  9.429859E-12  9.926167E-13
        64   7 -3.677609E+05 -2.582387E+05 -1.251999E+05  1.396490E+05  7.940934E-12 -5.293956E-12
        64   8 -3.996220E+05 -2.517072E+05 -1.302658E+05  1.505513E+05 -7.940934E-12  0.000000E+00
        64   9 -4.299749E+05 -2.449234E+05 -1.349797E+05  1.605591E+05  9.926167E-12  3.308722E-12
        64  10 -3.600651E+05 -2.778043E+05 -1.275739E+05  1.270910E+05  0.000000E+00  0.000000E+00
        64  11 -3.856271E+05 -2.730370E+05 -1.317328E+05  1.421956E+05 -6.617445E-13  2.977850E-12
        64  12 -4.085660E+05 -2.679523E+05 -1.353037E+05  1.567593E+05 -1.488925E-12 -5.790264E-13
        64  13 -3.642537E+05 -2.700686E+05 -1.268645E+05  1.329874E+05  0.000000E+00  2.646978E-12
        64  14 -3.930361E+05 -2.645695E+05 -1.315211E+05  1.458426E+05  0.000000E+00  1.323489E-12
        64  15 -4.197942E+05 -2.588066E+05 -1.357202E+05  1.579510E+05  3.308722E-13  3.308722E-13
        64  16 -3.677609E+05 -2.582387E+05 -1.251999E+05  1.396490E+05  6.617445E-13  6.617445E-13
        64  17 -3.996220E+05 -2.517072E+05 -1.302658E+05  1.505513E+05 -6.617445E-13  9.926167E-13
        64  18 -4.299749E+05 -2.449234E+05 -1.349797E+05  1.605591E+05 -1.158053E-12 -8.271806E-14
        64  19 -3.600651E+05 -2.778043E+05 -1.275739E+05  1.270910E+05 -9.926167E-13  1.323489E-11
        64  20 -3.856271E+05 -2.730370E+05 -1.317328E+05  1.421956E+05 -6.452009E-12  1.654361E-12
        64  21 -4.085660E+05 -2.679523E+05 -1.353037E+05  1.567593E+05 -8.809474E-12  8.271806E-13
        64  22 -3.642537E+05 -2.700686E+05 -1.268645E+05  1.329874E+05 -2.646978E-12  0.000000E+00
        64  23 -3.930361E+05 -2.645695E+05 -1.315211E+05  1.458426E+05 -1.323489E-12 -1.588187E-11
        64  24 -4.197942E+05 -2.588066E+05 -1.357202E+05  1.579510E+05 -4.135903E-12  4.301339E-12
        64  25 -3.677609E+05 -2.582387E+05 -1.251999E+05  1.396490E+05 -2.646978E-12  0.000000E+00
        64  26 -3.996220E+05 -2.517072E+05 -1.302658E+05  1.505513E+05  2.646978E-12  0.000000E+00
        64  27 -4.299749E+05 -2.449234E+05 -1.349797E+05  1.605591E+05 -9.926167E-12 -8.602678E-12
        65   1 -1.969704E+05 -2.543700E+05 -9.026810E+04  1.540068E+05 -1.240771E-13  1.985233E-12
        65   2 -1.989702E+05 -2.716382E+05 -9.412167E+04  1.561148E+05  1.209752E-12  2.812414E-12
        65   3 -1.947303E+05 -2.783283E+05 -9.461170E+04  1.628386E+05  3.282873E-13  6.079778E-12
        65   4 -2.189287E+05 -2.675142E+05 -9.728857E+04  1.387425E+05  7.444626E-13  1.323489E-12
        65   5 -2.134723E+05 -2.919015E+05 -1.010748E+05  1.421912E+05  1.654361E-13  1.985233E-12
        65   6 -2.008310E+05 -3.031939E+05 -1.008050E+05  1.511428E+05  4.652891E-13  6.286573E-12
        65   7 -2.401975E+05 -2.831795E+05 -1.046754E+05  1.238517E+05  9.926167E-13  7.940934E-12
        65   8 -2.252478E+05 -3.166375E+05 -1.083771E+05  1.288997E+05  2.481542E-13 -1.323489E-12
        65   9 -2.021312E+05 -3.336244E+05 -1.071511E+05  1.405430E+05  8.685396E-13  5.293956E-12
        65  10 -1.969704E+05 -2.543700E+05 -9.026810E+04  1.540068E+05  8.271806E-14  6.617445E-13
        65  11 -1.989702E+05 -2.716382E+05 -9.412167E+04  1.561148E+05 -4.135903E-14  8.271806E-13
        65  12 -1.947303E+05 -2.783283E+05 -9.461170E+04  1.628386E+05  1.189072E-13  2.067952E-13
        65  13 -2.189287E+05 -2.675142E+05 -9.728857E+04  1.387425E+05  0.000000E+00  0.000000E+00
        65  14 -2.134723E+05 -2.919015E+05 -1.010748E+05  1.421912E+05 -8.271806E-14  0.000000E+00
        65  15 -2.008310E+05 -3.031939E+05 -1.008050E+05  1.511428E+05  0.000000E+00  8.271806E-13
        65  16 -2.401975E+05 -2.831795E+05 -1.046754E+05  1.238517E+05  0.000000E+00  3.308722E-13
        65  17 -2.252478E+05 -3.166375E+05 -1.083771E+05  1.288997E+05  4.135903E-14  8.271806E-13
        65  18 -2.021312E+05 -3.336244E+05 -1.071511E+05  1.405430E+05  1.550964E-14  0.000000E+00
        65  19 -1.969704E+05 -2.543700E+05 -9.026810E+04  1.540068E+05  7.858216E-13 -4.632211E-12
        65  20 -1.989702E+05 -2.716382E+05 -9.412167E+04  1.561148E+05 -1.209752E-12 -2.812414E-12
        65  21 -1.947303E+05 -2.783283E+05 -9.461170E+04  1.628386E+05 -3.282873E-13 -7.858216E-13
        65  22 -2.189287E+05 -2.675142E+05 -9.728857E+04  1.387425E+05 -7.444626E-13  1.323489E-12
        65  23 -2.134723E+05 -2.919015E+05 -1.010748E+05  1.421912E+05 -1.654361E-13 -1.985233E-12
        65  24 -2.008310E+05 -3.031939E+05 -1.008050E+05  1.511428E+05 -7.961613E-13 -3.639595E-12
        65  25 -2.401975E+05 -2.831795E+05 -1.046754E+05  1.238517E+05 -9.926167E-13  2.646978E-12
        65  26 -2.252478E+05 -3.166375E+05 -1.083771E+05  1.288997E+05 -5.790264E-13 -3.970467E-12
        65  27 -2.021312E+05 -3.336244E+05 -1.071511E+05  1.405430E+05 -5.376674E-13 -2.646978E-12
        66   1 -1.892623E+05 -2.831858E+05 -9.448963E+04  1.687915E+05  4.756289E-13 -1.323489E-12
        66   2 -1.955502E+05 -2.841565E+05 -9.594135E+04  1.812670E+05 -3.618915E-13 -4.963084E-13
        66   3 -1.986265E+05 -2.781388E+05 -9.535306E+04  1.961617E+05 -1.938705E-13  2.481542E-13
        66   4 -1.961607E+05 -3.077372E+05 -1.007796E+05  1.604298E+05  1.158053E-12  0.000000E+00
        66   5 -1.928169E+05 -3.075497E+05 -1.000733E+05  1.790810E+05 -2.067952E-13 -6.617445E-13
        66   6 -1.860738E+05 -2.992551E+05 -9.706577E+04  2.002590E+05 -2.171349E-13 -1.654361E-12
        66   7 -1.890313E+05 -3.385247E+05 -1.055112E+05  1.521461E+05  3.308722E-13  0.000000E+00
        66   8 -1.752418E+05 -3.370848E+05 -1.024653E+05  1.781018E+05  4.135903E-13  1.323489E-12
        66   9 -1.578963E+05 -3.261699E+05 -9.681322E+04  2.066137E+05  2.067952E-13  9.926167E-13
        66  10 -1.892623E+05 -2.831858E+05 -9.448963E+04  1.687915E+05 -4.135903E-14  0.000000E+00
        66  11 -1.955502E+05 -2.841565E+05 -9.594135E+04  1.812670E+05 -2.067952E-13 -6.617445E-13
        66  12 -1.986265E+05 -2.781388E+05 -9.535306E+04  1.961617E+05 -2.067952E-13 -4.549493E-13
        66  13 -1.961607E+05 -3.077372E+05 -1.007796E+05  1.604298E+05 -1.654361E-13  0.000000E+00
        66  14 -1.928169E+05 -3.075497E+05 -1.000733E+05  1.790810E+05 -1.654361E-13  9.926167E-13
        66  15 -1.860738E+05 -2.992551E+05 -9.706577E+04  2.002590E+05 -4.135903E-14 -8.271806E-13
        66  16 -1.890313E+05 -3.385247E+05 -1.055112E+05  1.521461E+05 -4.135903E-14 -3.308722E-13
        66  17 -1.752418E+05 -3.370848E+05 -1.024653E+05  1.781018E+05 -4.135903E-14  6.617445E-13
        66  18 -1.578963E+05 -3.261699E+05 -9.681322E+04  2.066137E+05 -3.101927E-14 -1.654361E-13
        66  19 -1.892623E+05 -2.831858E+05 -9.448963E+04  1.687915E+05 -1.799118E-12  1.323489E-12
        66  20 -1.955502E+05 -2.841565E+05 -9.594135E+04  1.812670E+05 -9.615975E-13 -2.150670E-12
        66  21 -1.986265E+05 -2.781388E+05 -9.535306E+04  1.961617E+05 -1.129619E-12  2.398824E-12
        66  22 -1.961607E+05 -3.077372E+05 -1.007796E+05  1.604298E+05 -1.654361E-13 -5.293956E-12
        66  23 -1.928169E+05 -3.075497E+05 -1.000733E+05  1.790810E+05 -4.549493E-13 -4.632211E-12
        66  24 -1.860738E+05 -2.992551E+05 -9.706577E+04  2.002590E+05 -4.446096E-13  6.948317E-12
        66  25 -1.890313E+05 -3.385247E+05 -1.055112E+05  1.521461E+05 -3.308722E-13 -2.646978E-12
        66  26 -1.752418E+05 -3.370848E+05 -1.024653E+05  1.781018E+05 -4.135903E-13 -1.323489E-12
        66  27 -1.578963E+05 -3.261699E+05 -9.681322E+04  2.066137E+05 -5.376674E-13 -3.639595E-12
        67   1 -1.883111E+05 -3.624207E+05 -1.101464E+05  1.440472E+05  7.031035E-13  4.632211E-12
        67   2 -1.694623E+05 -3.583477E+05 -1.055620E+05  1.678497E+05  2.067952E-13  2.316106E-12
        67   3 -1.463228E+05 -3.482665E+05 -9.891786E+04  1.960039E+05  8.375204E-13  0.000000E+00
        67   4 -2.199577E+05 -3.851212E+05 -1.210158E+05  9.399145E+04  3.308722E-13  2.646978E-12
        67   5 -1.826384E+05 -3.825120E+05 -1.130301E+05  1.130158E+05  1.654361E-13  3.308722E-12
        67   6 -1.410197E+05 -3.723913E+05 -1.026822E+05  1.379147E+05  8.685396E-13  1.654361E-12
        67   7 -2.383157E+05 -4.075385E+05 -1.291708E+05  4.133809E+04  6.617445E-13 -2.646978E-12
        67   8 -1.740388E+05 -4.058393E+05 -1.159756E+05  5.491309E+04  3.308722E-13  0.000000E+00
        67   9 -1.065516E+05 -3.947038E+05 -1.002511E+05  7.647258E+04  1.530284E-12 -1.819797E-12
        67  10 -1.883111E+05 -3.624207E+05 -1.101464E+05  1.440472E+05  2.067952E-14  0.000000E+00
        67  11 -1.694623E+05 -3.583477E+05 -1.055620E+05  1.678497E+05  1.550964E-14 -3.308722E-13
        67  12 -1.463228E+05 -3.482665E+05 -9.891786E+04  1.960039E+05  1.680211E-14 -4.135903E-14
        67  13 -2.199577E+05 -3.851212E+05 -1.210158E+05  9.399145E+04 -4.135903E-14  6.617445E-13
        67  14 -1.826384E+05 -3.825120E+05 -1.130301E+05  1.130158E+05  0.000000E+00  0.000000E+00
        67  15 -1.410197E+05 -3.723913E+05 -1.026822E+05  1.379147E+05 -2.067952E-14  6.617445E-13
        67  16 -2.383157E+05 -4.075385E+05 -1.291708E+05  4.133809E+04 -2.067952E-14  0.000000E+00
        67  17 -1.740388E+05 -4.058393E+05 -1.159756E+05  5.491309E+04 -5.169879E-15 -3.308722E-13
        67  18 -1.065516E+05 -3.947038E+05 -1.002511E+05  7.647258E+04  6.462349E-15  0.000000E+00
        67  19 -1.883111E+05 -3.624207E+05 -1.101464E+05  1.440472E+05 -7.031035E-13  6.617445E-13
        67  20 -1.694623E+05 -3.583477E+05 -1.055620E+05  1.678497E+05 -3.722313E-13 -4.963084E-12
        67  21 -1.463228E+05 -3.482665E+05 -9.891786E+04  1.960039E+05 -5.066481E-13  2.646978E-12
        67  22 -2.199577E+05 -3.851212E+05 -1.210158E+05  9.399145E+04 -3.308722E-13  0.000000E+00
        67  23 -1.826384E+05 -3.825120E+05 -1.130301E+05  1.130158E+05 -1.654361E-13 -5.955700E-12
        67  24 -1.410197E+05 -3.723913E+05 -1.026822E+05  1.379147E+05 -5.376674E-13  9.926167E-13
        67  25 -2.383157E+05 -4.075385E+05 -1.291708E+05  4.133809E+04 -6.617445E-13 -2.646978E-12
        67  26 -1.740388E+05 -4.058393E+05 -1.159756E+05  5.491309E+04 -3.308722E-13  0.000000E+00
        67  27 -1.065516E+05 -3.947038E+05 -1.002511E+05  7.647258E+04 -8.685396E-13  1.819797E-12
        68   1 -2.586335E+05 -3.229437E+05 -1.163154E+05  1.125517E+05  8.271806E-13  9.926167E-13
        68   2 -2.344023E+05 -3.447833E+05 -1.158371E+05  1.207208E+05  3.101927E-13  1.654361E-12
        68   3 -2.054564E+05 -3.566756E+05 -1.124264E+05  1.329382E+05  5.014782E-13 -4.963084E-12
        68   4 -3.080436E+05 -3.452706E+05 -1.306628E+05  6.605647E+04  1.158053E-12 -1.058791E-11
        68   5 -2.769975E+05 -3.669081E+05 -1.287811E+05  7.193714E+04  8.271806E-14  2.646978E-12
        68   6 -2.410329E+05 -3.767725E+05 -1.235611E+05  8.298856E+04  1.075335E-12  9.926167E-13
        68   7 -3.605144E+05 -3.883334E+05 -1.497696E+05  2.575644E+04  6.617445E-13  2.646978E-12
        68   8 -3.163798E+05 -4.076454E+05 -1.448050E+05  2.810313E+04  1.488925E-12 -1.323489E-12
        68   9 -2.680195E+05 -4.129693E+05 -1.361978E+05  3.737974E+04 -2.481542E-13 -6.617445E-13
        68  10 -2.586335E+05 -3.229437E+05 -1.163154E+05  1.125517E+05  1.033976E-14  0.000000E+00
        68  11 -2.344023E+05 -3.447833E+05 -1.158371E+05  1.207208E+05 -1.680211E-14 -1.488925E-12
        68  12 -2.054564E+05 -3.566756E+05 -1.124264E+05  1.329382E+05  6.462349E-15 -3.308722E-13
        68  13 -3.080436E+05 -3.452706E+05 -1.306628E+05  6.605647E+04  6.720842E-14 -1.323489E-12
        68  14 -2.769975E+05 -3.669081E+05 -1.287811E+05  7.193714E+04 -2.584939E-15 -1.323489E-12
        68  15 -2.410329E+05 -3.767725E+05 -1.235611E+05  8.298856E+04  1.227846E-14 -1.488925E-12
        68  16 -3.605144E+05 -3.883334E+05 -1.497696E+05  2.575644E+04 -5.169879E-14  0.000000E+00
        68  17 -3.163798E+05 -4.076454E+05 -1.448050E+05  2.810313E+04  4.782138E-14 -1.488925E-12
        68  18 -2.680195E+05 -4.129693E+05 -1.361978E+05  3.737974E+04 -2.455692E-14  5.376674E-13
        68  19 -2.586335E+05 -3.229437E+05 -1.163154E+05  1.125517E+05 -8.271806E-13 -9.926167E-13
        68  20 -2.344023E+05 -3.447833E+05 -1.158371E+05  1.207208E+05 -3.101927E-13  9.926167E-13
        68  21 -2.054564E+05 -3.566756E+05 -1.124264E+05  1.329382E+05 -8.323505E-13  7.610062E-12
        68  22 -3.080436E+05 -3.452706E+05 -1.306628E+05  6.605647E+04 -8.271806E-13 -2.646978E-12
        68  23 -2.769975E+05 -3.669081E+05 -1.287811E+05  7.193714E+04  2.481542E-13  0.000000E+00
        68  24 -2.410329E+05 -3.767725E+05 -1.235611E+05  8.298856E+04 -1.075335E-12  1.654361E-12
        68  25 -3.605144E+05 -3.883334E+05 -1.497696E+05  2.575644E+04 -6.617445E-13  2.646978E-12
        68  26 -3.163798E+05 -4.076454E+05 -1.448050E+05  2.810313E+04 -1.158053E-12  1.323489E-12
        68  27 -2.680195E+05 -4.129693E+05 -1.361978E+05  3.737974E+04 -4.135903E-13  3.308722E-12
        69   1 -1.494809E+05 -1.114122E+05 -5.217863E+04 -1.567828E+03 -1.720536E-11 -1.323489E-11
        69   2 -1.547300E+05 -1.116032E+05 -5.326664E+04 -2.578427E+01 -6.948317E-12 -1.058791E-11
        69   3 -1.629820E+05 -1.130771E+05 -5.521181E+04  5.589447E+01  1.224227E-11 -6.584358E-11
        69   4 -1.494450E+05 -1.117655E+05 -5.224210E+04 -1.103293E+03  2.646978E-12  0.000000E+00
        69   5 -1.619946E+05 -1.136030E+05 -5.511954E+04 -6.239425E+02 -3.970467E-12  3.176374E-11
        69   6 -1.738737E+05 -1.165250E+05 -5.807975E+04  5.547991E+02  4.632211E-12 -1.588187E-11
        69   7 -1.526225E+05 -1.129235E+05 -5.310920E+04 -4.866236E+02 -2.646978E-11 -4.235165E-11
        69   8 -1.681900E+05 -1.150867E+05 -5.665534E+04 -1.680479E+03  2.646978E-12  6.352747E-11
        69   9 -1.825993E+05 -1.189107E+05 -6.030199E+04 -1.580001E+02 -4.632211E-12  5.293956E-12
        69  10 -1.494809E+05 -1.114122E+05 -5.217863E+04 -1.567828E+03 -1.985233E-12  0.000000E+00
        69  11 -1.547300E+05 -1.116032E+05 -5.326664E+04 -2.578427E+01  6.617445E-13 -2.646978E-12
        69  12 -1.629820E+05 -1.130771E+05 -5.521181E+04  5.589447E+01 -3.308722E-13  9.926167E-13
        69  13 -1.494450E+05 -1.117655E+05 -5.224210E+04 -1.103293E+03  0.000000E+00  0.000000E+00
        69  14 -1.619946E+05 -1.136030E+05 -5.511954E+04 -6.239425E+02 -1.323489E-12 -1.058791E-11
        69  15 -1.738737E+05 -1.165250E+05 -5.807975E+04  5.547991E+02  3.308722E-13  1.058791E-11
        69  16 -1.526225E+05 -1.129235E+05 -5.310920E+04 -4.866236E+02  1.323489E-12 -2.646978E-12
        69  17 -1.681900E+05 -1.150867E+05 -5.665534E+04 -1.680479E+03  6.617445E-13  3.970467E-12
        69  18 -1.825993E+05 -1.189107E+05 -6.030199E+04 -1.580001E+02 -1.819797E-12 -2.646978E-12
        69  19 -1.494809E+05 -1.114122E+05 -5.217863E+04 -1.567828E+03 -3.970467E-12 -7.940934E-12
        69  20 -1.547300E+05 -1.116032E+05 -5.326664E+04 -2.578427E+01 -3.639595E-12  1.058791E-11
        69  21 -1.629820E+05 -1.130771E+05 -5.521181E+04  5.589447E+01 -1.654361E-12  2.349193E-11
        69  22 -1.494450E+05 -1.117655E+05 -5.224210E+04 -1.103293E+03 -2.646978E-12  2.117582E-11
        69  23 -1.619946E+05 -1.136030E+05 -5.511954E+04 -6.239425E+02  3.970467E-12  1.058791E-11
        69  24 -1.738737E+05 -1.165250E+05 -5.807975E+04  5.547991E+02  5.955700E-12 -2.646978E-11
        69  25 -1.526225E+05 -1.129235E+05 -5.310920E+04 -4.866236E+02  5.293956E-12  0.000000E+00
        69  26 -1.681900E+05 -1.150867E+05 -5.665534E+04 -1.680479E+03 -1.323489E-11  0.000000E+00
        69  27 -1.825993E+05 -1.189107E+05 -6.030199E+04 -1.580001E+02 -1.124966E-11  3.705769E-11
        70   1 -1.671696E+05 -1.139920E+05 -5.623231E+04 -3.137028E+00 -1.058791E-11  2.646978E-12
        70   2 -1.727034E+05 -1.162065E+05 -5.778197E+04  1.067371E+03  7.940934E-12  2.779327E-11
        70   3 -1.780416E+05 -1.160965E+05 -5.882762E+04  2.715143E+03 -8.271806E-13 -2.316106E-12
        70   4 -1.780698E+05 -1.153468E+05 -5.868332E+04 -5.380809E+02  1.323489E-11 -3.176374E-11
        70   5 -1.882224E+05 -1.215439E+05 -6.195327E+04  1.570323E+03 -9.264423E-12  4.235165E-11
        70   6 -1.973638E+05 -1.258956E+05 -6.465189E+04  4.473014E+03  1.555100E-11  9.264423E-12
        70   7 -1.909575E+05 -1.200186E+05 -6.219522E+04  3.729958E+02  0.000000E+00  0.000000E+00
        70   8 -2.033345E+05 -1.273239E+05 -6.613167E+04  1.814760E+03  2.646978E-12 -5.293956E-11
        70   9 -2.147630E+05 -1.341282E+05 -6.977823E+04  4.789677E+03 -4.632211E-12 -1.588187E-11
        70  10 -1.671696E+05 -1.139920E+05 -5.623231E+04 -3.137028E+00  1.323489E-12  0.000000E+00
        70  11 -1.727034E+05 -1.162065E+05 -5.778197E+04  1.067371E+03 -2.646978E-12  6.617445E-12
        70  12 -1.780416E+05 -1.160965E+05 -5.882762E+04  2.715143E+03 -4.963084E-13  0.000000E+00
        70  13 -1.780698E+05 -1.153468E+05 -5.868332E+04 -5.380809E+02  0.000000E+00  5.293956E-12
        70  14 -1.882224E+05 -1.215439E+05 -6.195327E+04  1.570323E+03 -2.646978E-12 -5.293956E-12
        70  15 -1.973638E+05 -1.258956E+05 -6.465189E+04  4.473014E+03  0.000000E+00  1.985233E-12
        70  16 -1.909575E+05 -1.200186E+05 -6.219522E+04  3.729958E+02  0.000000E+00 -2.646978E-12
        70  17 -2.033345E+05 -1.273239E+05 -6.613167E+04  1.814760E+03 -6.617445E-13 -3.970467E-12
        70  18 -2.147630E+05 -1.341282E+05 -6.977823E+04  4.789677E+03 -1.406207E-12  3.308722E-12
        70  19 -1.671696E+05 -1.139920E+05 -5.623231E+04 -3.137028E+00 -1.058791E-11 -2.646978E-12
        70  20 -1.727034E+05 -1.162065E+05 -5.778197E+04  1.067371E+03  2.646978E-12 -6.617445E-12
        70  21 -1.780416E+05 -1.160965E+05 -5.882762E+04  2.715143E+03  8.271806E-13  2.349193E-11
        70  22 -1.780698E+05 -1.153468E+05 -5.868332E+04 -5.380809E+02 -2.646978E-12  1.058791E-11
        70  23 -1.882224E+05 -1.215439E+05 -6.195327E+04  1.570323E+03  9.264423E-12  0.000000E+00
        70  24 -1.973638E+05 -1.258956E+05 -6.465189E+04  4.473014E+03 -4.963084E-12 -9.264423E-12
        70  25 -1.909575E+05 -1.200186E+05 -6.219522E+04  3.729958E+02 -5.293956E-12  0.000000E+00
        70  26 -2.033345E+05 -1.273239E+05 -6.613167E+04  1.814760E+03 -2.646978E-12 -1.058791E-11
        70  27 -2.147630E+05 -1.341282E+05 -6.977823E+04  4.789677E+03 -5.955700E-12  1.588187E-11
        71   1 -1.993631E+05 -1.238617E+05 -6.464494E+04 -8.846030E+02  8.602678E-12 -2.646978E-11
        71   2 -2.133178E+05 -1.338634E+05 -6.943625E+04  7.566905E+02  1.654361E-11  1.058791E-11
        71   3 -2.260194E+05 -1.396882E+05 -7.314152E+04  3.198228E+03  8.602678E-12  4.632211E-12
        71   4 -2.124947E+05 -1.297706E+05 -6.845307E+04 -1.073392E+03  1.852885E-11 -4.235165E-11
        71   5 -2.287829E+05 -1.408750E+05 -7.393159E+04  2.285626E+02 -1.588187E-11  5.823352E-11
        71   6 -2.443767E+05 -1.502124E+05 -7.891783E+04  3.340053E+03  2.316106E-12 -6.617445E-12
        71   7 -2.270082E+05 -1.385963E+05 -7.312091E+04 -1.994751E+02  1.588187E-11  2.117582E-11
        71   8 -2.439297E+05 -1.485889E+05 -7.850371E+04 -4.886541E+02  2.646978E-12 -7.411538E-11
        71   9 -2.611232E+05 -1.595687E+05 -8.413838E+04  2.274744E+03  0.000000E+00 -2.646978E-12
        71  10 -1.993631E+05 -1.238617E+05 -6.464494E+04 -8.846030E+02 -1.323489E-12  2.646978E-12
        71  11 -2.133178E+05 -1.338634E+05 -6.943625E+04  7.566905E+02 -9.926167E-13 -1.323489E-12
        71  12 -2.260194E+05 -1.396882E+05 -7.314152E+04  3.198228E+03  1.323489E-12  0.000000E+00
        71  13 -2.124947E+05 -1.297706E+05 -6.845307E+04 -1.073392E+03  0.000000E+00 -5.293956E-12
        71  14 -2.287829E+05 -1.408750E+05 -7.393159E+04  2.285626E+02  2.646978E-12  5.293956E-12
        71  15 -2.443767E+05 -1.502124E+05 -7.891783E+04  3.340053E+03  1.654361E-12  1.522012E-11
        71  16 -2.270082E+05 -1.385963E+05 -7.312091E+04 -1.994751E+02  0.000000E+00 -2.646978E-12
        71  17 -2.439297E+05 -1.485889E+05 -7.850371E+04 -4.886541E+02  0.000000E+00 -1.323489E-12
        71  18 -2.611232E+05 -1.595687E+05 -8.413838E+04  2.274744E+03 -1.240771E-12  0.000000E+00
        71  19 -1.993631E+05 -1.238617E+05 -6.464494E+04 -8.846030E+02 -1.389663E-11  2.646978E-11
        71  20 -2.133178E+05 -1.338634E+05 -6.943625E+04  7.566905E+02 -1.654361E-11 -1.058791E-11
        71  21 -2.260194E+05 -1.396882E+05 -7.314152E+04  3.198228E+03 -8.602678E-12  3.771944E-11
        71  22 -2.124947E+05 -1.297706E+05 -6.845307E+04 -1.073392E+03 -2.646978E-12  0.000000E+00
        71  23 -2.287829E+05 -1.408750E+05 -7.393159E+04  2.285626E+02  5.293956E-12  5.293956E-12
        71  24 -2.443767E+05 -1.502124E+05 -7.891783E+04  3.340053E+03 -2.316106E-12  2.779327E-11
        71  25 -2.270082E+05 -1.385963E+05 -7.312091E+04 -1.994751E+02 -5.293956E-12  2.117582E-11
        71  26 -2.439297E+05 -1.485889E+05 -7.850371E+04 -4.886541E+02 -7.940934E-12  3.176374E-11
        71  27 -2.611232E+05 -1.595687E+05 -8.413838E+04  2.274744E+03  5.293956E-12 -1.852885E-11
        72   1 -1.540058E+05 -1.148687E+05 -5.377489E+04 -7.982394E+02 -4.632211E-12 -1.852885E-11
        72   2 -1.699980E+05 -1.142421E+05 -5.684803E+04  7.862564E+02  1.124966E-11  2.779327E-11
        72   3 -1.883930E+05 -1.190404E+05 -6.148667E+04 -7.934727E+02  1.273858E-11 -4.301339E-12
        72   4 -1.540906E+05 -1.141171E+05 -5.364154E+04  6.100181E+02  7.940934E-12  3.176374E-11
        72   5 -1.765054E+05 -1.158291E+05 -5.846689E+04 -6.846509E+02  0.000000E+00  2.117582E-11
        72   6 -1.999476E+05 -1.220519E+05 -6.439990E+04 -1.372839E+03  1.985233E-11  3.970467E-12
        72   7 -1.565932E+05 -1.139006E+05 -5.409877E+04  1.905010E+03  5.293956E-12 -2.117582E-11
        72   8 -1.826987E+05 -1.170781E+05 -5.995537E+04 -2.352330E+03  1.588187E-11  2.117582E-11
        72   9 -2.098679E+05 -1.243856E+05 -6.685069E+04 -2.848299E+03  7.940934E-12 -1.058791E-11
        72  10 -1.540058E+05 -1.148687E+05 -5.377489E+04 -7.982394E+02  6.617445E-13  5.293956E-12
        72  11 -1.699980E+05 -1.142421E+05 -5.684803E+04  7.862564E+02  2.646978E-12 -5.293956E-12
        72  12 -1.883930E+05 -1.190404E+05 -6.148667E+04 -7.934727E+02  1.488925E-12 -3.308722E-13
        72  13 -1.540906E+05 -1.141171E+05 -5.364154E+04  6.100181E+02  0.000000E+00  0.000000E+00
        72  14 -1.765054E+05 -1.158291E+05 -5.846689E+04 -6.846509E+02 -2.646978E-12  1.588187E-11
        72  15 -1.999476E+05 -1.220519E+05 -6.439990E+04 -1.372839E+03  1.985233E-12 -3.970467E-12
        72  16 -1.565932E+05 -1.139006E+05 -5.409877E+04  1.905010E+03  6.617445E-13  5.293956E-12
        72  17 -1.826987E+05 -1.170781E+05 -5.995537E+04 -2.352330E+03 -6.617445E-13 -1.323489E-12
        72  18 -2.098679E+05 -1.243856E+05 -6.685069E+04 -2.848299E+03  9.098987E-13 -2.316106E-12
        72  19 -1.540058E+05 -1.148687E+05 -5.377489E+04 -7.982394E+02 -6.617445E-13 -2.646978E-12
        72  20 -1.699980E+05 -1.142421E+05 -5.684803E+04  7.862564E+02 -6.617445E-13 -6.617445E-12
        72  21 -1.883930E+05 -1.190404E+05 -6.148667E+04 -7.934727E+02 -7.444626E-12  2.547716E-11
        72  22 -1.540906E+05 -1.141171E+05 -5.364154E+04  6.100181E+02 -7.940934E-12  5.293956E-11
        72  23 -1.765054E+05 -1.158291E+05 -5.846689E+04 -6.846509E+02  0.000000E+00 -2.117582E-11
        72  24 -1.999476E+05 -1.220519E+05 -6.439990E+04 -1.372839E+03 -1.455838E-11  3.838118E-11
        72  25 -1.565932E+05 -1.139006E+05 -5.409877E+04  1.905010E+03  1.058791E-11  2.117582E-11
        72  26 -1.826987E+05 -1.170781E+05 -5.995537E+04 -2.352330E+03 -1.058791E-11  6.352747E-11
        72  27 -2.098679E+05 -1.243856E+05 -6.685069E+04 -2.848299E+03  2.646978E-12  1.058791E-11
        73   1 -1.684270E+05 -1.124839E+05 -5.618217E+04  1.559338E+03  2.646978E-12  2.646978E-12
        73   2 -1.642970E+05 -1.129337E+05 -5.544614E+04  9.659557E+02  1.985233E-12  2.514629E-11
        73   3 -1.595200E+05 -1.136727E+05 -5.463854E+04  4.136051E+02  9.926167E-13 -2.580804E-11
        73   4 -1.553391E+05 -1.104346E+05 -5.315475E+04  6.118297E+02  2.117582E-11 -2.117582E-11
        73   5 -1.518787E+05 -1.103132E+05 -5.243838E+04 -1.270971E+02  2.646978E-12 -3.705769E-11
        73   6 -1.480055E+05 -1.103000E+05 -5.166110E+04 -8.840135E+02 -1.058791E-11  0.000000E+00
        73   7 -1.422983E+05 -1.083803E+05 -5.013571E+04 -6.773102E+02  0.000000E+00  2.117582E-11
        73   8 -1.395756E+05 -1.079609E+05 -4.950730E+04 -1.428066E+03  1.058791E-11 -3.176374E-11
        73   9 -1.366499E+05 -1.075698E+05 -4.884394E+04 -2.211605E+03 -9.926167E-12 -3.705769E-11
        73  10 -1.684270E+05 -1.124839E+05 -5.618217E+04  1.559338E+03  2.646978E-12  2.646978E-12
        73  11 -1.642970E+05 -1.129337E+05 -5.544614E+04  9.659557E+02 -1.323489E-12 -5.293956E-12
        73  12 -1.595200E+05 -1.136727E+05 -5.463854E+04  4.136051E+02  3.308722E-13  6.617445E-13
        73  13 -1.553391E+05 -1.104346E+05 -5.315475E+04  6.118297E+02  0.000000E+00  0.000000E+00
        73  14 -1.518787E+05 -1.103132E+05 -5.243838E+04 -1.270971E+02  1.323489E-12 -5.293956E-12
        73  15 -1.480055E+05 -1.103000E+05 -5.166110E+04 -8.840135E+02 -1.985233E-12  1.455838E-11
        73  16 -1.422983E+05 -1.083803E+05 -5.013571E+04 -6.773102E+02  0.000000E+00  0.000000E+00
        73  17 -1.395756E+05 -1.079609E+05 -4.950730E+04 -1.428066E+03 -4.632211E-12 -9.264423E-12
        73  18 -1.366499E+05 -1.075698E+05 -4.884394E+04 -2.211605E+03  0.000000E+00  3.308722E-13
        73  19 -1.684270E+05 -1.124839E+05 -5.618217E+04  1.559338E+03 -1.323489E-11  1.852885E-11
        73  20 -1.642970E+05 -1.129337E+05 -5.544614E+04  9.659557E+02 -1.985233E-12  1.720536E-11
        73  21 -1.595200E+05 -1.136727E+05 -5.463854E+04  4.136051E+02 -9.926167E-13 -1.654361E-11
        73  22 -1.553391E+05 -1.104346E+05 -5.315475E+04  6.118297E+02 -1.058791E-11  2.117582E-11
        73  23 -1.518787E+05 -1.103132E+05 -5.243838E+04 -1.270971E+02  7.940934E-12  3.705769E-11
        73  24 -1.480055E+05 -1.103000E+05 -5.166110E+04 -8.840135E+02  0.000000E+00  0.000000E+00
        73  25 -1.422983E+05 -1.083803E+05 -5.013571E+04 -6.773102E+02 -1.058791E-11  0.000000E+00
        73  26 -1.395756E+05 -1.079609E+05 -4.950730E+04 -1.428066E+03 -3.176374E-11  3.176374E-11
        73  27 -1.366499E+05 -1.075698E+05 -4.884394E+04 -2.211605E+03 -6.617445E-13  3.705769E-11
        74   1 -1.569087E+05 -1.123806E+05 -5.385786E+04 -1.270308E+03 -1.323489E-12 -4.499863E-11
        74   2 -1.519365E+05 -1.118524E+05 -5.275778E+04 -1.581369E+03  8.271806E-12 -1.720536E-11
        74   3 -1.459857E+05 -1.117990E+05 -5.155695E+04 -1.844398E+03  1.943874E-11  3.176374E-11
        74   4 -1.457938E+05 -1.093752E+05 -5.103378E+04 -1.729113E+03  0.000000E+00 -5.293956E-11
        74   5 -1.419439E+05 -1.081693E+05 -5.002264E+04 -2.007826E+03 -5.293956E-12  8.470329E-11
        74   6 -1.376856E+05 -1.070459E+05 -4.894630E+04 -2.290630E+03 -2.977850E-12 -2.646978E-12
        74   7 -1.349053E+05 -1.070300E+05 -4.838706E+04 -2.368373E+03  2.117582E-11 -6.352747E-11
        74   8 -1.321864E+05 -1.056445E+05 -4.756617E+04 -2.453991E+03 -1.588187E-11  1.058791E-11
        74   9 -1.294815E+05 -1.042389E+05 -4.674408E+04 -2.521998E+03 -6.617445E-12  5.293956E-12
        74  10 -1.569087E+05 -1.123806E+05 -5.385786E+04 -1.270308E+03 -2.646978E-12  2.646978E-12
        74  11 -1.519365E+05 -1.118524E+05 -5.275778E+04 -1.581369E+03 -6.617445E-13  6.617445E-12
        74  12 -1.459857E+05 -1.117990E+05 -5.155695E+04 -1.844398E+03  2.481542E-12  3.308722E-12
        74  13 -1.457938E+05 -1.093752E+05 -5.103378E+04 -1.729113E+03 -2.646978E-12  0.000000E+00
        74  14 -1.419439E+05 -1.081693E+05 -5.002264E+04 -2.007826E+03  0.000000E+00  5.293956E-12
        74  15 -1.376856E+05 -1.070459E+05 -4.894630E+04 -2.290630E+03  1.323489E-12 -5.293956E-12
        74  16 -1.349053E+05 -1.070300E+05 -4.838706E+04 -2.368373E+03  6.617445E-13 -2.646978E-12
        74  17 -1.321864E+05 -1.056445E+05 -4.756617E+04 -2.453991E+03  0.000000E+00  5.293956E-12
        74  18 -1.294815E+05 -1.042389E+05 -4.674408E+04 -2.521998E+03  9.926167E-13 -2.646978E-12
        74  19 -1.569087E+05 -1.123806E+05 -5.385786E+04 -1.270308E+03 -9.264423E-12  2.382280E-11
        74  20 -1.519365E+05 -1.118524E+05 -5.275778E+04 -1.581369E+03 -1.885972E-11  1.720536E-11
        74  21 -1.459857E+05 -1.117990E+05 -5.155695E+04 -1.844398E+03  1.737079E-12 -5.293956E-11
        74  22 -1.457938E+05 -1.093752E+05 -5.103378E+04 -1.729113E+03 -1.058791E-11  3.176374E-11
        74  23 -1.419439E+05 -1.081693E+05 -5.002264E+04 -2.007826E+03  1.588187E-11  0.000000E+00
        74  24 -1.376856E+05 -1.070459E+05 -4.894630E+04 -2.290630E+03 -1.819797E-11  4.499863E-11
        74  25 -1.349053E+05 -1.070300E+05 -4.838706E+04 -2.368373E+03 -1.058791E-11  2.117582E-11
        74  26 -1.321864E+05 -1.056445E+05 -4.756617E+04 -2.453991E+03  5.293956E-12 -5.293956E-11
        74  27 -1.294815E+05 -1.042389E+05 -4.674408E+04 -2.521998E+03 -3.970467E-12  1.588187E-11
        75   1 -1.287454E+05 -1.052741E+05 -4.680389E+04 -1.863980E+03  1.522012E-11  3.176374E-11
        75   2 -1.263245E+05 -1.036724E+05 -4.599937E+04 -1.497062E+03  3.110199E-11 -7.279189E-11
        75   3 -1.228192E+05 -1.014612E+05 -4.485607E+04 -6.097255E+02  5.128520E-12  4.896909E-11
        75   4 -1.167017E+05 -1.027252E+05 -4.388538E+04 -7.497779E+02  0.000000E+00 -6.352747E-11
        75   5 -1.152475E+05 -1.020313E+05 -4.345576E+04 -5.689506E+02  0.000000E+00 -4.235165E-11
        75   6 -1.131245E+05 -1.010004E+05 -4.282498E+04  2.386887E+01 -6.617445E-13 -2.514629E-11
        75   7 -1.050283E+05 -1.009702E+05 -4.119969E+04 -7.054560E+01 -5.293956E-12 -2.117582E-11
        75   8 -1.045382E+05 -1.011848E+05 -4.114460E+04  1.536623E+01  5.293956E-12  5.293956E-11
        75   9 -1.037121E+05 -1.012814E+05 -4.099870E+04  4.516112E+02  2.646978E-12 -5.293956E-12
        75  10 -1.287454E+05 -1.052741E+05 -4.680389E+04 -1.863980E+03 -1.985233E-12  0.000000E+00
        75  11 -1.263245E+05 -1.036724E+05 -4.599937E+04 -1.497062E+03 -2.646978E-12  1.058791E-11
        75  12 -1.228192E+05 -1.014612E+05 -4.485607E+04 -6.097255E+02  9.926167E-13 -3.639595E-12
        75  13 -1.167017E+05 -1.027252E+05 -4.388538E+04 -7.497779E+02  0.000000E+00  0.000000E+00
        75  14 -1.152475E+05 -1.020313E+05 -4.345576E+04 -5.689506E+02 -3.970467E-12 -1.058791E-11
        75  15 -1.131245E+05 -1.010004E+05 -4.282498E+04  2.386887E+01 -6.617445E-13  1.323489E-12
        75  16 -1.050283E+05 -1.009702E+05 -4.119969E+04 -7.054560E+01 -1.323489E-12 -5.293956E-12
        75  17 -1.045382E+05 -1.011848E+05 -4.114460E+04  1.536623E+01  6.617445E-13  2.646978E-12
        75  18 -1.037121E+05 -1.012814E+05 -4.099870E+04  4.516112E+02 -9.926167E-13  1.985233E-12
        75  19 -1.287454E+05 -1.052741E+05 -4.680389E+04 -1.863980E+03  5.955700E-12  5.293956E-11
        75  20 -1.263245E+05 -1.036724E+05 -4.599937E+04 -1.497062E+03  6.617445E-13 -3.308722E-11
        75  21 -1.228192E+05 -1.014612E+05 -4.485607E+04 -6.097255E+02 -5.128520E-12 -6.617445E-12
        75  22 -1.167017E+05 -1.027252E+05 -4.388538E+04 -7.497779E+02  0.000000E+00  2.117582E-11
        75  23 -1.152475E+05 -1.020313E+05 -4.345576E+04 -5.689506E+02 -1.058791E-11  0.000000E+00
        75  24 -1.131245E+05 -1.010004E+05 -4.282498E+04  2.386887E+01  6.617445E-13  3.970467E-12
        75  25 -1.050283E+05 -1.009702E+05 -4.119969E+04 -7.054560E+01  5.293956E-12  2.117582E-11
        75  26 -1.045382E+05 -1.011848E+05 -4.114460E+04  1.536623E+01 -5.293956E-12  3.176374E-11
        75  27 -1.037121E+05 -1.012814E+05 -4.099870E+04  4.516112E+02  2.646978E-12  5.293956E-12
        76   1 -1.342052E+05 -1.070859E+05 -4.825823E+04 -1.149399E+03  2.183757E-11 -6.352747E-11
        76   2 -1.320574E+05 -1.063573E+05 -4.768294E+04 -1.610165E+03  0.000000E+00 -1.852885E-11
        76   3 -1.299949E+05 -1.056764E+05 -4.713427E+04 -2.111769E+03 -6.865599E-12 -1.025704E-11
        76   4 -1.199512E+05 -1.046552E+05 -4.492129E+04 -8.323759E+02  0.000000E+00  1.058791E-11
        76   5 -1.186027E+05 -1.038502E+05 -4.449057E+04 -1.011141E+03  1.058791E-11 -2.646978E-11
        76   6 -1.174951E+05 -1.030937E+05 -4.411776E+04 -1.181458E+03 -3.308722E-12 -6.220398E-11
        76   7 -1.059394E+05 -1.030481E+05 -4.179752E+04 -7.896870E+02  0.000000E+00  0.000000E+00
        76   8 -1.054454E+05 -1.023635E+05 -4.156177E+04 -6.235627E+02  1.058791E-11 -3.176374E-11
        76   9 -1.053367E+05 -1.017684E+05 -4.142101E+04 -3.939757E+02 -5.293956E-12 -1.058791E-11
        76  10 -1.342052E+05 -1.070859E+05 -4.825823E+04 -1.149399E+03  1.323489E-12  2.646978E-12
        76  11 -1.320574E+05 -1.063573E+05 -4.768294E+04 -1.610165E+03  0.000000E+00  2.646978E-12
        76  12 -1.299949E+05 -1.056764E+05 -4.713427E+04 -2.111769E+03  9.926167E-13  6.617445E-13
        76  13 -1.199512E+05 -1.046552E+05 -4.492129E+04 -8.323759E+02 -2.646978E-12  0.000000E+00
        76  14 -1.186027E+05 -1.038502E+05 -4.449057E+04 -1.011141E+03 -3.970467E-12  2.646978E-11
        76  15 -1.174951E+05 -1.030937E+05 -4.411776E+04 -1.181458E+03  3.639595E-12 -1.323489E-12
        76  16 -1.059394E+05 -1.030481E+05 -4.179752E+04 -7.896870E+02  1.323489E-12  2.646978E-12
        76  17 -1.054454E+05 -1.023635E+05 -4.156177E+04 -6.235627E+02  1.985233E-12 -3.970467E-12
        76  18 -1.053367E+05 -1.017684E+05 -4.142101E+04 -3.939757E+02  2.150670E-12  9.926167E-13
        76  19 -1.342052E+05 -1.070859E+05 -4.825823E+04 -1.149399E+03 -6.617445E-13  0.000000E+00
        76  20 -1.320574E+05 -1.063573E+05 -4.768294E+04 -1.610165E+03  1.058791E-11  1.852885E-11
        76  21 -1.299949E+05 -1.056764E+05 -4.713427E+04 -2.111769E+03 -3.722313E-12  3.143286E-11
        76  22 -1.199512E+05 -1.046552E+05 -4.492129E+04 -8.323759E+02  0.000000E+00  3.176374E-11
        76  23 -1.186027E+05 -1.038502E+05 -4.449057E+04 -1.011141E+03  0.000000E+00  2.646978E-11
        76  24 -1.174951E+05 -1.030937E+05 -4.411776E+04 -1.181458E+03  3.308722E-12 -1.323489E-12
        76  25 -1.059394E+05 -1.030481E+05 -4.179752E+04 -7.896870E+02  2.117582E-11  0.000000E+00
        76  26 -1.054454E+05 -1.023635E+05 -4.156177E+04 -6.235627E+02 -1.058791E-11 -1.058791E-11
        76  27 -1.053367E+05 -1.017684E+05 -4.142101E+04 -3.939757E+02  5.293956E-12  5.293956E-11
        77   1 -1.062863E+05 -1.039427E+05 -4.204581E+04 -7.253598E+02  3.970467E-12 -5.293956E-12
        77   2 -1.065151E+05 -1.041440E+05 -4.213181E+04 -5.099509E+02  1.124966E-11 -5.161607E-11
        77   3 -1.070792E+05 -1.044285E+05 -4.230156E+04 -2.948458E+02  2.398824E-12  1.389663E-11
        77   4 -1.206873E+05 -1.045561E+05 -4.504868E+04 -7.072375E+02  0.000000E+00  0.000000E+00
        77   5 -1.219944E+05 -1.044730E+05 -4.529348E+04  2.387815E+02  2.646978E-12  5.823352E-11
        77   6 -1.233994E+05 -1.044407E+05 -4.556802E+04  1.121798E+03 -6.617445E-12  1.323489E-12
        77   7 -1.356250E+05 -1.073139E+05 -4.858777E+04 -7.399804E+02  5.293956E-12  4.235165E-11
        77   8 -1.379878E+05 -1.067009E+05 -4.893774E+04  7.555039E+02 -1.058791E-11  3.176374E-11
        77   9 -1.402387E+05 -1.061439E+05 -4.927653E+04  2.157122E+03 -1.852885E-11  2.117582E-11
        77  10 -1.062863E+05 -1.039427E+05 -4.204581E+04 -7.253598E+02  0.000000E+00 -7.940934E-12
        77  11 -1.065151E+05 -1.041440E+05 -4.213181E+04 -5.099509E+02 -1.985233E-12 -1.323489E-12
        77  12 -1.070792E+05 -1.044285E+05 -4.230156E+04 -2.948458E+02 -9.926167E-13  1.323489E-12
        77  13 -1.206873E+05 -1.045561E+05 -4.504868E+04 -7.072375E+02  0.000000E+00  1.058791E-11
        77  14 -1.219944E+05 -1.044730E+05 -4.529348E+04  2.387815E+02  0.000000E+00  5.293956E-12
        77  15 -1.233994E+05 -1.044407E+05 -4.556802E+04  1.121798E+03  2.316106E-12 -1.323489E-12
        77  16 -1.356250E+05 -1.073139E+05 -4.858777E+04 -7.399804E+02 -1.323489E-12 -2.646978E-12
        77  17 -1.379878E+05 -1.067009E+05 -4.893774E+04  7.555039E+02 -3.970467E-12 -1.191140E-11
        77  18 -1.402387E+05 -1.061439E+05 -4.927653E+04  2.157122E+03 -8.271806E-13  1.985233E-12
        77  19 -1.062863E+05 -1.039427E+05 -4.204581E+04 -7.253598E+02 -3.970467E-12  4.764560E-11
        77  20 -1.065151E+05 -1.041440E+05 -4.213181E+04 -5.099509E+02 -1.124966E-11  5.161607E-11
        77  21 -1.070792E+05 -1.044285E+05 -4.230156E+04 -2.948458E+02 -2.398824E-12  7.279189E-12
        77  22 -1.206873E+05 -1.045561E+05 -4.504868E+04 -7.072375E+02  1.058791E-11  2.117582E-11
        77  23 -1.219944E+05 -1.044730E+05 -4.529348E+04  2.387815E+02  1.852885E-11  5.293956E-12
        77  24 -1.233994E+05 -1.044407E+05 -4.556802E+04  1.121798E+03 -1.455838E-11 -1.323489E-12
        77  25 -1.356250E+05 -1.073139E+05 -4.858777E+04 -7.399804E+02  5.293956E-12 -4.235165E-11
        77  26 -1.379878E+05 -1.067009E+05 -4.893774E+04  7.555039E+02  0.000000E+00 -3.176374E-11
        77  27 -1.402387E+05 -1.061439E+05 -4.927653E+04  2.157122E+03 -1.323489E-11  2.117582E-11
        78   1 -1.071707E+05 -1.042600E+05 -4.228615E+04  9.437563E+01 -2.646978E-12  3.705769E-11
        78   2 -1.075518E+05 -1.032327E+05 -4.215690E+04  6.003450E+02  1.124966E-11 -3.970467E-12
        78   3 -1.087842E+05 -1.024101E+05 -4.223886E+04  1.161046E+03  2.051408E-11 -2.613891E-11
        78   4 -1.241918E+05 -1.043095E+05 -4.570027E+04  1.642478E+03  1.588187E-11  2.117582E-11
        78   5 -1.255051E+05 -1.033516E+05 -4.577134E+04  3.249780E+03  7.940934E-12 -2.646978E-11
        78   6 -1.273759E+05 -1.025184E+05 -4.597886E+04  4.847831E+03 -6.617445E-13 -2.382280E-11
        78   7 -1.416485E+05 -1.061164E+05 -4.955297E+04  3.150381E+03 -1.058791E-11 -2.117582E-11
        78   8 -1.439535E+05 -1.050143E+05 -4.979355E+04  5.645290E+03  1.588187E-11 -3.176374E-11
        78   9 -1.464915E+05 -1.039720E+05 -5.009270E+04  8.111133E+03 -1.588187E-11  5.558654E-11
        78  10 -1.071707E+05 -1.042600E+05 -4.228615E+04  9.437563E+01  0.000000E+00 -5.293956E-12
        78  11 -1.075518E+05 -1.032327E+05 -4.215690E+04  6.003450E+02  2.646978E-12 -3.970467E-12
        78  12 -1.087842E+05 -1.024101E+05 -4.223886E+04  1.161046E+03  1.654361E-13 -3.308722E-13
        78  13 -1.241918E+05 -1.043095E+05 -4.570027E+04  1.642478E+03  2.646978E-12  0.000000E+00
        78  14 -1.255051E+05 -1.033516E+05 -4.577134E+04  3.249780E+03 -9.264423E-12 -1.058791E-11
        78  15 -1.273759E+05 -1.025184E+05 -4.597886E+04  4.847831E+03  3.639595E-12  1.058791E-11
        78  16 -1.416485E+05 -1.061164E+05 -4.955297E+04  3.150381E+03  0.000000E+00  0.000000E+00
        78  17 -1.439535E+05 -1.050143E+05 -4.979355E+04  5.645290E+03  3.308722E-12 -9.264423E-12
        78  18 -1.464915E+05 -1.039720E+05 -5.009270E+04  8.111133E+03  3.474159E-12 -4.301339E-12
        78  19 -1.071707E+05 -1.042600E+05 -4.228615E+04  9.437563E+01 -7.940934E-12 -3.705769E-11
        78  20 -1.075518E+05 -1.032327E+05 -4.215690E+04  6.003450E+02 -1.124966E-11  2.514629E-11
        78  21 -1.087842E+05 -1.024101E+05 -4.223886E+04  1.161046E+03 -9.926167E-12  2.613891E-11
        78  22 -1.241918E+05 -1.043095E+05 -4.570027E+04  1.642478E+03 -5.293956E-12  2.117582E-11
        78  23 -1.255051E+05 -1.033516E+05 -4.577134E+04  3.249780E+03  1.323489E-11 -3.705769E-11
        78  24 -1.273759E+05 -1.025184E+05 -4.597886E+04  4.847831E+03  6.617445E-13  2.646978E-12
        78  25 -1.416485E+05 -1.061164E+05 -4.955297E+04  3.150381E+03 -1.058791E-11 -2.117582E-11
        78  26 -1.439535E+05 -1.050143E+05 -4.979355E+04  5.645290E+03 -5.293956E-12  5.293956E-11
        78  27 -1.464915E+05 -1.039720E+05 -5.009270E+04  8.111133E+03  2.646978E-11  7.940934E-12
        79   1 -1.512084E+05 -1.071882E+05 -5.167932E+04  4.478459E+03  7.940934E-12  1.588187E-11
        79   2 -1.530798E+05 -1.059628E+05 -5.180852E+04  7.481156E+03  3.970467E-12 -5.293956E-12
        79   3 -1.541885E+05 -1.043033E+05 -5.169836E+04  1.084353E+04 -3.143286E-12 -5.095433E-11
        79   4 -1.656457E+05 -1.080447E+05 -5.473809E+04  9.049737E+03  5.293956E-12  1.058791E-11
        79   5 -1.683142E+05 -1.071666E+05 -5.509617E+04  1.254868E+04  7.940934E-12 -1.588187E-11
        79   6 -1.700669E+05 -1.058715E+05 -5.518769E+04  1.636038E+04  5.955700E-12 -3.176374E-11
        79   7 -1.808773E+05 -1.115574E+05 -5.848695E+04  1.319611E+04  0.000000E+00 -2.117582E-11
        79   8 -1.843546E+05 -1.105566E+05 -5.898223E+04  1.715678E+04 -1.588187E-11  2.117582E-11
        79   9 -1.867976E+05 -1.091958E+05 -5.919869E+04  2.139481E+04  6.617445E-12  2.646978E-11
        79  10 -1.512084E+05 -1.071882E+05 -5.167932E+04  4.478459E+03  0.000000E+00  0.000000E+00
        79  11 -1.530798E+05 -1.059628E+05 -5.180852E+04  7.481156E+03  0.000000E+00 -7.940934E-12
        79  12 -1.541885E+05 -1.043033E+05 -5.169836E+04  1.084353E+04 -4.963084E-13 -2.316106E-12
        79  13 -1.656457E+05 -1.080447E+05 -5.473809E+04  9.049737E+03 -2.646978E-12  0.000000E+00
        79  14 -1.683142E+05 -1.071666E+05 -5.509617E+04  1.254868E+04 -2.646978E-12 -5.293956E-12
        79  15 -1.700669E+05 -1.058715E+05 -5.518769E+04  1.636038E+04  6.617445E-13  6.617445E-12
        79  16 -1.808773E+05 -1.115574E+05 -5.848695E+04  1.319611E+04  0.000000E+00 -2.646978E-12
        79  17 -1.843546E+05 -1.105566E+05 -5.898223E+04  1.715678E+04 -1.323489E-12 -3.970467E-12
        79  18 -1.867976E+05 -1.091958E+05 -5.919869E+04  2.139481E+04 -3.308722E-13 -3.639595E-12
        79  19 -1.512084E+05 -1.071882E+05 -5.167932E+04  4.478459E+03  2.646978E-12  5.293956E-12
        79  20 -1.530798E+05 -1.059628E+05 -5.180852E+04  7.481156E+03 -3.970467E-12  2.646978E-11
        79  21 -1.541885E+05 -1.043033E+05 -5.169836E+04  1.084353E+04 -7.444626E-12  8.602678E-12
        79  22 -1.656457E+05 -1.080447E+05 -5.473809E+04  9.049737E+03 -5.293956E-12  1.058791E-11
        79  23 -1.683142E+05 -1.071666E+05 -5.509617E+04  1.254868E+04 -7.940934E-12  1.588187E-11
        79  24 -1.700669E+05 -1.058715E+05 -5.518769E+04  1.636038E+04  4.632211E-12  5.293956E-11
        79  25 -1.808773E+05 -1.115574E+05 -5.848695E+04  1.319611E+04 -2.117582E-11  2.117582E-11
        79  26 -1.843546E+05 -1.105566E+05 -5.898223E+04  1.715678E+04  5.293956E-12  0.000000E+00
        79  27 -1.867976E+05 -1.091958E+05 -5.919869E+04  2.139481E+04 -6.617445E-12  1.588187E-11
        80   1 -1.438867E+05 -1.083699E+05 -5.045132E+04 -1.530953E+02  5.293956E-12 -2.646978E-12
        80   2 -1.467878E+05 -1.081166E+05 -5.098088E+04  1.325676E+03 -1.323489E-12 -5.029258E-11
        80   3 -1.496614E+05 -1.075824E+05 -5.144876E+04  3.096206E+03  2.977850E-12  2.977850E-11
        80   4 -1.572537E+05 -1.101629E+05 -5.348331E+04  1.639093E+03  1.058791E-11 -2.117582E-11
        80   5 -1.607562E+05 -1.099374E+05 -5.413871E+04  4.220102E+03 -2.646978E-12  1.588187E-11
        80   6 -1.641019E+05 -1.094982E+05 -5.472003E+04  6.973259E+03  7.940934E-12 -5.293956E-12
        80   7 -1.713433E+05 -1.147153E+05 -5.721170E+04  3.156170E+03  2.646978E-11  0.000000E+00
        80   8 -1.753850E+05 -1.140660E+05 -5.789020E+04  6.721161E+03 -5.293956E-12 -7.411538E-11
        80   9 -1.791626E+05 -1.133121E+05 -5.849494E+04  1.036572E+04  1.985233E-12  2.646978E-12
        80  10 -1.438867E+05 -1.083699E+05 -5.045132E+04 -1.530953E+02 -2.646978E-12 -2.646978E-12
        80  11 -1.467878E+05 -1.081166E+05 -5.098088E+04  1.325676E+03  0.000000E+00  6.617445E-12
        80  12 -1.496614E+05 -1.075824E+05 -5.144876E+04  3.096206E+03 -3.474159E-12  9.926167E-13
        80  13 -1.572537E+05 -1.101629E+05 -5.348331E+04  1.639093E+03 -2.646978E-12 -5.293956E-12
        80  14 -1.607562E+05 -1.099374E+05 -5.413871E+04  4.220102E+03 -1.323489E-12 -1.058791E-11
        80  15 -1.641019E+05 -1.094982E+05 -5.472003E+04  6.973259E+03 -3.308722E-12 -4.632211E-12
        80  16 -1.713433E+05 -1.147153E+05 -5.721170E+04  3.156170E+03  0.000000E+00  2.646978E-12
        80  17 -1.753850E+05 -1.140660E+05 -5.789020E+04  6.721161E+03  6.617445E-13  6.617445E-12
        80  18 -1.791626E+05 -1.133121E+05 -5.849494E+04  1.036572E+04  3.308722E-13 -6.617445E-13
        80  19 -1.438867E+05 -1.083699E+05 -5.045132E+04 -1.530953E+02 -5.293956E-12 -3.970467E-11
        80  20 -1.467878E+05 -1.081166E+05 -5.098088E+04  1.325676E+03  1.323489E-12  2.911676E-11
        80  21 -1.496614E+05 -1.075824E+05 -5.144876E+04  3.096206E+03 -2.415367E-11  1.257315E-11
        80  22 -1.572537E+05 -1.101629E+05 -5.348331E+04  1.639093E+03 -1.058791E-11  4.235165E-11
        80  23 -1.607562E+05 -1.099374E+05 -5.413871E+04  4.220102E+03  2.646978E-12 -1.588187E-11
        80  24 -1.641019E+05 -1.094982E+05 -5.472003E+04  6.973259E+03 -7.940934E-12  4.764560E-11
        80  25 -1.713433E+05 -1.147153E+05 -5.721170E+04  3.156170E+03 -5.293956E-12  0.000000E+00
        80  26 -1.753850E+05 -1.140660E+05 -5.789020E+04  6.721161E+03 -5.293956E-12  3.176374E-11
        80  27 -1.791626E+05 -1.133121E+05 -5.849494E+04  1.036572E+04 -1.985233E-12  3.970467E-11
        81   1 -5.638036E+05 -2.092169E+05 -1.546041E+05  1.866120E+05 -4.963084E-13 -4.135903E-13
        81   2 -5.354250E+05 -2.322454E+05 -1.535341E+05  1.954656E+05 -2.481542E-12  7.444626E-13
        81   3 -5.116615E+05 -2.584278E+05 -1.540178E+05  2.066583E+05 -1.282130E-12  1.220091E-12
        81   4 -5.642669E+05 -1.974429E+05 -1.523420E+05  1.791533E+05 -1.985233E-12  6.617445E-13
        81   5 -5.289104E+05 -2.203982E+05 -1.498617E+05  1.860517E+05 -8.271806E-12  4.632211E-12
        81   6 -4.969664E+05 -2.459088E+05 -1.485750E+05  1.947193E+05 -1.654361E-12  1.654361E-12
        81   7 -5.655884E+05 -1.798409E+05 -1.490859E+05  1.727591E+05  0.000000E+00  1.985233E-12
        81   8 -5.238417E+05 -2.020544E+05 -1.451792E+05  1.778311E+05  1.323489E-12  0.000000E+00
        81   9 -4.844849E+05 -2.261581E+05 -1.421286E+05  1.841634E+05 -4.301339E-12  5.045802E-12
        81  10 -5.638036E+05 -2.092169E+05 -1.546041E+05  1.866120E+05  6.617445E-13  1.654361E-13
        81  11 -5.354250E+05 -2.322454E+05 -1.535341E+05  1.954656E+05  0.000000E+00  2.481542E-13
        81  12 -5.116615E+05 -2.584278E+05 -1.540178E+05  2.066583E+05  1.240771E-13  5.790264E-13
        81  13 -5.642669E+05 -1.974429E+05 -1.523420E+05  1.791533E+05  6.617445E-13 -3.308722E-13
        81  14 -5.289104E+05 -2.203982E+05 -1.498617E+05  1.860517E+05 -6.617445E-13  9.926167E-13
        81  15 -4.969664E+05 -2.459088E+05 -1.485750E+05  1.947193E+05 -8.271806E-13 -5.376674E-13
        81  16 -5.655884E+05 -1.798409E+05 -1.490859E+05  1.727591E+05  0.000000E+00  3.308722E-13
        81  17 -5.238417E+05 -2.020544E+05 -1.451792E+05  1.778311E+05  0.000000E+00 -7.444626E-13
        81  18 -4.844849E+05 -2.261581E+05 -1.421286E+05  1.841634E+05  1.240771E-13 -3.101927E-13
        81  19 -5.638036E+05 -2.092169E+05 -1.546041E+05  1.866120E+05  4.963084E-13 -2.233388E-12
        81  20 -5.354250E+05 -2.322454E+05 -1.535341E+05  1.954656E+05 -2.812414E-12 -7.444626E-13
        81  21 -5.116615E+05 -2.584278E+05 -1.540178E+05  2.066583E+05  1.282130E-12 -1.220091E-12
        81  22 -5.642669E+05 -1.974429E+05 -1.523420E+05  1.791533E+05 -6.617445E-13 -3.308722E-12
        81  23 -5.289104E+05 -2.203982E+05 -1.498617E+05  1.860517E+05  2.977850E-12  6.617445E-13
        81  24 -4.969664E+05 -2.459088E+05 -1.485750E+05  1.947193E+05  4.301339E-12 -2.977850E-12
        81  25 -5.655884E+05 -1.798409E+05 -1.490859E+05  1.727591E+05  2.646978E-12 -1.985233E-12
        81  26 -5.238417E+05 -2.020544E+05 -1.451792E+05  1.778311E+05  1.323489E-12  0.000000E+00
        81  27 -4.844849E+05 -2.261581E+05 -1.421286E+05  1.841634E+05  6.948317E-12 -2.398824E-12
        82   1 -4.906158E+05 -2.812648E+05 -1.543761E+05  2.129674E+05  0.000000E+00  1.654361E-13
        82   2 -4.527981E+05 -3.191732E+05 -1.543943E+05  2.423527E+05 -4.384057E-12  6.700163E-12
        82   3 -4.510307E+05 -3.855683E+05 -1.673198E+05  2.928956E+05 -8.065011E-12  6.327932E-12
        82   4 -4.747023E+05 -2.659542E+05 -1.481313E+05  1.990604E+05 -7.279189E-12  5.955700E-12
        82   5 -4.144161E+05 -3.195911E+05 -1.468014E+05  2.205254E+05 -1.323489E-12  1.654361E-12
        82   6 -3.787627E+05 -3.981693E+05 -1.553864E+05  2.584796E+05 -1.199412E-11  5.459392E-12
        82   7 -4.599592E+05 -2.428056E+05 -1.405530E+05  1.869210E+05 -2.646978E-12  5.293956E-12
        82   8 -3.789096E+05 -3.051689E+05 -1.368157E+05  1.985548E+05 -6.617445E-12  3.308722E-12
        82   9 -3.073194E+05 -3.829809E+05 -1.380601E+05  2.185816E+05 -9.264423E-12  7.775498E-12
        82  10 -4.906158E+05 -2.812648E+05 -1.543761E+05  2.129674E+05 -3.308722E-13  3.308722E-13
        82  11 -4.527981E+05 -3.191732E+05 -1.543943E+05  2.423527E+05 -4.963084E-13 -4.963084E-13
        82  12 -4.510307E+05 -3.855683E+05 -1.673198E+05  2.928956E+05  1.654361E-13  2.067952E-13
        82  13 -4.747023E+05 -2.659542E+05 -1.481313E+05  1.990604E+05  1.323489E-12  0.000000E+00
        82  14 -4.144161E+05 -3.195911E+05 -1.468014E+05  2.205254E+05  6.617445E-13 -6.617445E-13
        82  15 -3.787627E+05 -3.981693E+05 -1.553864E+05  2.584796E+05  4.963084E-13  1.654361E-13
        82  16 -4.599592E+05 -2.428056E+05 -1.405530E+05  1.869210E+05  6.617445E-13  0.000000E+00
        82  17 -3.789096E+05 -3.051689E+05 -1.368157E+05  1.985548E+05  0.000000E+00 -3.308722E-13
        82  18 -3.073194E+05 -3.829809E+05 -1.380601E+05  2.185816E+05 -8.271806E-14 -1.447566E-13
        82  19 -4.906158E+05 -2.812648E+05 -1.543761E+05  2.129674E+05  0.000000E+00 -2.812414E-12
        82  20 -4.527981E+05 -3.191732E+05 -1.543943E+05  2.423527E+05  7.031035E-12 -4.053185E-12
        82  21 -4.510307E+05 -3.855683E+05 -1.673198E+05  2.928956E+05  8.065011E-12 -6.327932E-12
        82  22 -4.747023E+05 -2.659542E+05 -1.481313E+05  1.990604E+05  1.985233E-12  6.617445E-13
        82  23 -4.144161E+05 -3.195911E+05 -1.468014E+05  2.205254E+05  3.970467E-12  9.926167E-13
        82  24 -3.787627E+05 -3.981693E+05 -1.553864E+05  2.584796E+05  6.700163E-12 -6.782881E-12
        82  25 -4.599592E+05 -2.428056E+05 -1.405530E+05  1.869210E+05  2.646978E-12 -5.293956E-12
        82  26 -3.789096E+05 -3.051689E+05 -1.368157E+05  1.985548E+05  6.617445E-12 -3.308722E-12
        82  27 -3.073194E+05 -3.829809E+05 -1.380601E+05  2.185816E+05  6.617445E-12 -7.775498E-12
        83   1 -4.443933E+05 -2.318507E+05 -1.352488E+05  1.822081E+05 -7.444626E-13  1.737079E-12
        83   2 -3.572463E+05 -2.948643E+05 -1.304221E+05  1.863225E+05 -4.632211E-12  3.308722E-12
        83   3 -2.529438E+05 -3.579889E+05 -1.221865E+05  1.863575E+05 -1.017432E-11  6.607105E-12
        83   4 -3.982185E+05 -2.126831E+05 -1.221803E+05  1.700639E+05 -3.970467E-12  2.646978E-12
        83   5 -3.105851E+05 -2.718990E+05 -1.164968E+05  1.594586E+05 -1.323489E-12  1.323489E-12
        83   6 -1.968024E+05 -3.195809E+05 -1.032767E+05  1.371151E+05 -9.884808E-12  7.858216E-12
        83   7 -3.629594E+05 -1.913596E+05 -1.108638E+05  1.564892E+05 -6.617445E-12  6.617445E-13
        83   8 -2.777114E+05 -2.430810E+05 -1.041585E+05  1.327716E+05 -5.293956E-12  4.301339E-12
        83   9 -1.604250E+05 -2.708294E+05 -8.625088E+04  9.085022E+04 -5.128520E-12  8.023652E-12
        83  10 -4.443933E+05 -2.318507E+05 -1.352488E+05  1.822081E+05 -1.654361E-13  1.654361E-13
        83  11 -3.572463E+05 -2.948643E+05 -1.304221E+05  1.863225E+05  2.481542E-13  8.271806E-14
        83  12 -2.529438E+05 -3.579889E+05 -1.221865E+05  1.863575E+05 -3.101927E-13 -1.861156E-13
        83  13 -3.982185E+05 -2.126831E+05 -1.221803E+05  1.700639E+05  3.308722E-13  3.308722E-13
        83  14 -3.105851E+05 -2.718990E+05 -1.164968E+05  1.594586E+05 -9.926167E-13 -3.308722E-13
        83  15 -1.968024E+05 -3.195809E+05 -1.032767E+05  1.371151E+05 -4.963084E-13  3.308722E-13
        83  16 -3.629594E+05 -1.913596E+05 -1.108638E+05  1.564892E+05  0.000000E+00  1.654361E-13
        83  17 -2.777114E+05 -2.430810E+05 -1.041585E+05  1.327716E+05  1.654361E-13 -8.271806E-14
        83  18 -1.604250E+05 -2.708294E+05 -8.625088E+04  9.085022E+04  1.033976E-13  4.135903E-14
        83  19 -4.443933E+05 -2.318507E+05 -1.352488E+05  1.822081E+05  4.714929E-12 -1.737079E-12
        83  20 -3.572463E+05 -2.948643E+05 -1.304221E+05  1.863225E+05  7.279189E-12 -1.985233E-12
        83  21 -2.529438E+05 -3.579889E+05 -1.221865E+05  1.863575E+05  8.850833E-12 -7.930594E-12
        83  22 -3.982185E+05 -2.126831E+05 -1.221803E+05  1.700639E+05  1.323489E-12 -1.323489E-12
        83  23 -3.105851E+05 -2.718990E+05 -1.164968E+05  1.594586E+05  1.323489E-12  0.000000E+00
        83  24 -1.968024E+05 -3.195809E+05 -1.032767E+05  1.371151E+05  7.237830E-12 -5.211238E-12
        83  25 -3.629594E+05 -1.913596E+05 -1.108638E+05  1.564892E+05  5.293956E-12 -3.308722E-12
        83  26 -2.777114E+05 -2.430810E+05 -1.041585E+05  1.327716E+05  3.970467E-12 -3.639595E-12
        83  27 -1.604250E+05 -2.708294E+05 -8.625088E+04  9.085022E+04  5.128520E-12 -6.700163E-12
        84   1 -5.610886E+05 -1.693321E+05 -1.460841E+05  1.704005E+05  4.756289E-13  1.178732E-12
        84   2 -5.131753E+05 -1.887160E+05 -1.403783E+05  1.719762E+05  3.722313E-13  1.199412E-12
        84   3 -4.691402E+05 -2.141051E+05 -1.366491E+05  1.766595E+05 -4.797648E-12  9.926167E-13
        84   4 -5.493379E+05 -1.552191E+05 -1.409114E+05  1.702177E+05 -2.233388E-12  2.481542E-13
        84   5 -4.926248E+05 -1.752433E+05 -1.335736E+05  1.672183E+05 -1.323489E-12  8.271806E-13
        84   6 -4.376816E+05 -1.989343E+05 -1.273232E+05  1.657853E+05 -2.316106E-12  3.308722E-12
        84   7 -5.403914E+05 -1.372977E+05 -1.355378E+05  1.699646E+05 -7.444626E-13 -2.481542E-13
        84   8 -4.759958E+05 -1.564236E+05 -1.264839E+05  1.629132E+05 -1.985233E-12  3.308722E-13
        84   9 -4.117399E+05 -1.769699E+05 -1.177420E+05  1.561899E+05 -3.308722E-12  0.000000E+00
        84  10 -5.610886E+05 -1.693321E+05 -1.460841E+05  1.704005E+05  8.271806E-14 -8.271806E-14
        84  11 -5.131753E+05 -1.887160E+05 -1.403783E+05  1.719762E+05 -1.240771E-13  4.135903E-14
        84  12 -4.691402E+05 -2.141051E+05 -1.366491E+05  1.766595E+05 -1.344168E-13  2.067952E-14
        84  13 -5.493379E+05 -1.552191E+05 -1.409114E+05  1.702177E+05  4.963084E-13  3.308722E-13
        84  14 -4.926248E+05 -1.752433E+05 -1.335736E+05  1.672183E+05  6.617445E-13 -4.135903E-13
        84  15 -4.376816E+05 -1.989343E+05 -1.273232E+05  1.657853E+05  8.271806E-14  2.895132E-13
        84  16 -5.403914E+05 -1.372977E+05 -1.355378E+05  1.699646E+05  0.000000E+00  0.000000E+00
        84  17 -4.759958E+05 -1.564236E+05 -1.264839E+05  1.629132E+05  4.549493E-13  4.135903E-14
        84  18 -4.117399E+05 -1.769699E+05 -1.177420E+05  1.561899E+05 -3.929108E-13 -1.033976E-14
        84  19 -5.610886E+05 -1.693321E+05 -1.460841E+05  1.704005E+05 -4.756289E-13 -1.178732E-12
        84  20 -5.131753E+05 -1.887160E+05 -1.403783E+05  1.719762E+05  2.274747E-12  1.240771E-13
        84  21 -4.691402E+05 -2.141051E+05 -1.366491E+05  1.766595E+05  4.797648E-12 -9.926167E-13
        84  22 -5.493379E+05 -1.552191E+05 -1.409114E+05  1.702177E+05  2.895132E-12  4.135903E-13
        84  23 -4.926248E+05 -1.752433E+05 -1.335736E+05  1.672183E+05  0.000000E+00 -8.271806E-13
        84  24 -4.376816E+05 -1.989343E+05 -1.273232E+05  1.657853E+05  3.639595E-12 -1.985233E-12
        84  25 -5.403914E+05 -1.372977E+05 -1.355378E+05  1.699646E+05  4.135903E-13 -8.271806E-14
        84  26 -4.759958E+05 -1.564236E+05 -1.264839E+05  1.629132E+05  6.617445E-13 -3.308722E-13
        84  27 -4.117399E+05 -1.769699E+05 -1.177420E+05  1.561899E+05  1.985233E-12  6.617445E-13
        85   1 -4.230207E+05 -1.119258E+05 -1.069893E+05  2.094128E+05 -8.271806E-14 -1.654361E-13
        85   2 -3.894913E+05 -1.043813E+05 -9.877452E+04  2.282618E+05  6.203855E-14  8.271806E-14
        85   3 -3.409979E+05 -9.334551E+04 -8.686869E+04  2.529146E+05  3.618915E-14  8.271806E-14
        85   4 -3.711406E+05 -1.285531E+05 -9.993874E+04  2.242397E+05 -1.654361E-13  1.323489E-12
        85   5 -3.320680E+05 -1.239273E+05 -9.119904E+04  2.461184E+05  1.654361E-13  6.617445E-13
        85   6 -2.748750E+05 -1.164018E+05 -7.825536E+04  2.752321E+05  3.101927E-13  0.000000E+00
        85   7 -3.338872E+05 -1.632524E+05 -9.942791E+04  2.293238E+05  0.000000E+00 -6.617445E-13
        85   8 -2.906656E+05 -1.645828E+05 -9.104967E+04  2.530956E+05  0.000000E+00  3.308722E-13
        85   9 -2.262402E+05 -1.647146E+05 -7.819096E+04  2.853286E+05  2.067952E-13  4.135903E-13
        85  10 -4.230207E+05 -1.119258E+05 -1.069893E+05  2.094128E+05  0.000000E+00 -8.271806E-14
        85  11 -3.894913E+05 -1.043813E+05 -9.877452E+04  2.282618E+05  2.067952E-14 -6.203855E-14
        85  12 -3.409979E+05 -9.334551E+04 -8.686869E+04  2.529146E+05  1.550964E-14 -6.203855E-14
        85  13 -3.711406E+05 -1.285531E+05 -9.993874E+04  2.242397E+05  0.000000E+00  0.000000E+00
        85  14 -3.320680E+05 -1.239273E+05 -9.119904E+04  2.461184E+05  8.271806E-14 -1.654361E-13
        85  15 -2.748750E+05 -1.164018E+05 -7.825536E+04  2.752321E+05 -1.033976E-14 -4.135903E-14
        85  16 -3.338872E+05 -1.632524E+05 -9.942791E+04  2.293238E+05  0.000000E+00  0.000000E+00
        85  17 -2.906656E+05 -1.645828E+05 -9.104967E+04  2.530956E+05  1.447566E-13  6.203855E-14
        85  18 -2.262402E+05 -1.647146E+05 -7.819096E+04  2.853286E+05 -5.169879E-15 -2.584939E-14
        85  19 -4.230207E+05 -1.119258E+05 -1.069893E+05  2.094128E+05  4.135903E-14  8.271806E-14
        85  20 -3.894913E+05 -1.043813E+05 -9.877452E+04  2.282618E+05  2.067952E-14  0.000000E+00
        85  21 -3.409979E+05 -9.334551E+04 -8.686869E+04  2.529146E+05 -3.618915E-14 -8.271806E-14
        85  22 -3.711406E+05 -1.285531E+05 -9.993874E+04  2.242397E+05  1.654361E-13  0.000000E+00
        85  23 -3.320680E+05 -1.239273E+05 -9.119904E+04  2.461184E+05  1.654361E-13  0.000000E+00
        85  24 -2.748750E+05 -1.164018E+05 -7.825536E+04  2.752321E+05 -3.101927E-13  6.617445E-13
        85  25 -3.338872E+05 -1.632524E+05 -9.942791E+04  2.293238E+05  6.617445E-13 -6.617445E-13
        85  26 -2.906656E+05 -1.645828E+05 -9.104967E+04  2.530956E+05 -3.308722E-13  3.308722E-13
        85  27 -2.262402E+05 -1.647146E+05 -7.819096E+04  2.853286E+05 -2.067952E-13  2.481542E-13
        86   1 -3.213974E+05 -9.238486E+04 -8.275645E+04  2.725261E+05 -2.067952E-14  0.000000E+00
        86   2 -1.581280E+05 -6.401792E+04 -4.442919E+04  3.349310E+05  7.237830E-14  8.271806E-14
        86   3  4.421982E+05  6.970844E+04  1.023813E+05  4.867963E+05 -5.169879E-14 -1.344168E-13
        86   4 -2.440748E+05 -1.130847E+05 -7.143190E+04  3.016430E+05  0.000000E+00  9.926167E-13
        86   5 -1.667824E+05 -1.504585E+05 -6.344820E+04  3.050250E+05 -4.135903E-14  1.654361E-13
        86   6  3.844704E+05 -8.922975E+04  5.904812E+04  3.887419E+05 -2.791735E-13  7.031035E-13
        86   7 -1.637650E+05 -1.306447E+05 -5.888193E+04  3.327506E+05  0.000000E+00  6.617445E-13
        86   8 -1.793224E+05 -2.381147E+05 -8.348742E+04  2.717431E+05  3.308722E-13 -1.985233E-12
        86   9  3.201921E+05 -2.579195E+05  1.245452E+04  2.766117E+05  3.101927E-13  8.271806E-13
        86  10 -3.213974E+05 -9.238486E+04 -8.275645E+04  2.725261E+05  0.000000E+00 -4.135903E-14
        86  11 -1.581280E+05 -6.401792E+04 -4.442919E+04  3.349310E+05  0.000000E+00 -6.203855E-14
        86  12  4.421982E+05  6.970844E+04  1.023813E+05  4.867963E+05 -1.292470E-14  5.169879E-15
        86  13 -2.440748E+05 -1.130847E+05 -7.143190E+04  3.016430E+05 -4.135903E-14  1.654361E-13
        86  14 -1.667824E+05 -1.504585E+05 -6.344820E+04  3.050250E+05  0.000000E+00  8.271806E-14
        86  15  3.844704E+05 -8.922975E+04  5.904812E+04  3.887419E+05  3.618915E-14 -2.067952E-14
        86  16 -1.637650E+05 -1.306447E+05 -5.888193E+04  3.327506E+05 -4.135903E-14  0.000000E+00
        86  17 -1.793224E+05 -2.381147E+05 -8.348742E+04  2.717431E+05  0.000000E+00  1.033976E-13
        86  18  3.201921E+05 -2.579195E+05  1.245452E+04  2.766117E+05 -2.326445E-14 -3.618915E-14
        86  19 -3.213974E+05 -9.238486E+04 -8.275645E+04  2.725261E+05  4.135903E-14 -8.271806E-14
        86  20 -1.581280E+05 -6.401792E+04 -4.442919E+04  3.349310E+05 -5.169879E-14 -8.271806E-14
        86  21  4.421982E+05  6.970844E+04  1.023813E+05  4.867963E+05 -3.101927E-14 -3.101927E-14
        86  22 -2.440748E+05 -1.130847E+05 -7.143190E+04  3.016430E+05 -1.654361E-13  3.308722E-13
        86  23 -1.667824E+05 -1.504585E+05 -6.344820E+04  3.050250E+05  4.135903E-14 -1.654361E-13
        86  24  3.844704E+05 -8.922975E+04  5.904812E+04  3.887419E+05  1.137373E-13 -7.031035E-13
        86  25 -1.637650E+05 -1.306447E+05 -5.888193E+04  3.327506E+05  3.308722E-13 -6.617445E-13
        86  26 -1.793224E+05 -2.381147E+05 -8.348742E+04  2.717431E+05 -1.654361E-13  0.000000E+00
        86  27  3.201921E+05 -2.579195E+05  1.245452E+04  2.766117E+05  2.067952E-14 -8.271806E-13
        87   1 -1.340651E+05 -1.617419E+05 -5.916141E+04  3.314977E+05 -2.688337E-13 -2.316106E-12
        87   2 -6.103911E+04 -2.674235E+05 -6.569253E+04  2.675128E+05  5.997059E-13 -1.902515E-12
        87   3  1.497349E+05 -3.408247E+05 -3.821798E+04  1.956792E+05  2.817584E-13 -2.440183E-12
        87   4 -1.312335E+05 -2.473667E+05 -7.572004E+04  2.776392E+05  4.135903E-13  0.000000E+00
        87   5 -9.554401E+04 -3.311928E+05 -8.534736E+04  2.141994E+05  4.135903E-14  0.000000E+00
        87   6  4.346609E+04 -3.813703E+05 -6.758085E+04  1.285290E+05  2.688337E-13  4.963084E-13
        87   7 -1.260148E+05 -3.308637E+05 -9.137568E+04  2.253338E+05  3.308722E-13 -1.323489E-12
        87   8 -1.192450E+05 -3.785823E+05 -9.956546E+04  1.694820E+05  8.271806E-14 -3.308722E-12
        87   9 -4.741320E+04 -3.785956E+05 -8.520176E+04  7.844869E+04 -8.478601E-13  1.488925E-12
        87  10 -1.340651E+05 -1.617419E+05 -5.916141E+04  3.314977E+05  0.000000E+00 -3.308722E-13
        87  11 -6.103911E+04 -2.674235E+05 -6.569253E+04  2.675128E+05  2.067952E-14  3.308722E-13
        87  12  1.497349E+05 -3.408247E+05 -3.821798E+04  1.956792E+05 -6.203855E-14  4.135903E-14
        87  13 -1.312335E+05 -2.473667E+05 -7.572004E+04  2.776392E+05  8.271806E-14 -6.617445E-13
        87  14 -9.554401E+04 -3.311928E+05 -8.534736E+04  2.141994E+05  8.271806E-14  6.617445E-13
        87  15  4.346609E+04 -3.813703E+05 -6.758085E+04  1.285290E+05 -4.135903E-14  8.271806E-14
        87  16 -1.260148E+05 -3.308637E+05 -9.137568E+04  2.253338E+05  4.135903E-14 -3.308722E-13
        87  17 -1.192450E+05 -3.785823E+05 -9.956546E+04  1.694820E+05  6.203855E-14 -2.481542E-13
        87  18 -4.741320E+04 -3.785956E+05 -8.520176E+04  7.844869E+04 -1.240771E-13 -1.033976E-13
        87  19 -1.340651E+05 -1.617419E+05 -5.916141E+04  3.314977E+05  1.033976E-13 -3.308722E-13
        87  20 -6.103911E+04 -2.674235E+05 -6.569253E+04  2.675128E+05 -4.342698E-13  1.902515E-12
        87  21  1.497349E+05 -3.408247E+05 -3.821798E+04  1.956792E+05 -2.817584E-13  1.116694E-12
        87  22 -1.312335E+05 -2.473667E+05 -7.572004E+04  2.776392E+05 -2.481542E-13 -1.323489E-12
        87  23 -9.554401E+04 -3.311928E+05 -8.534736E+04  2.141994E+05 -4.135903E-14  2.646978E-12
        87  24  4.346609E+04 -3.813703E+05 -6.758085E+04  1.285290E+05 -2.688337E-13  2.150670E-12
        87  25 -1.260148E+05 -3.308637E+05 -9.137568E+04  2.253338E+05 -3.308722E-13  0.000000E+00
        87  26 -1.192450E+05 -3.785823E+05 -9.956546E+04  1.694820E+05 -8.271806E-14  6.617445E-13
        87  27 -4.741320E+04 -3.785956E+05 -8.520176E+04  7.844869E+04 -4.756289E-13 -1.488925E-12
        88   1 -2.905017E+05 -1.848571E+05 -9.507178E+04  2.351191E+05 -1.654361E-12  0.000000E+00
        88   2 -2.758906E+05 -1.937514E+05 -9.392839E+04  2.527811E+05  8.685396E-13  6.617445E-13
        88   3 -2.518095E+05 -2.047436E+05 -9.131061E+04  2.774759E+05  1.033976E-13 -5.169879E-13
        88   4 -2.443377E+05 -2.197670E+05 -9.282094E+04  2.276697E+05  9.926167E-13 -3.970467E-12
        88   5 -2.234717E+05 -2.323586E+05 -9.116605E+04  2.404655E+05 -3.308722E-13  2.646978E-12
        88   6 -1.898776E+05 -2.484957E+05 -8.767466E+04  2.590265E+05  0.000000E+00 -1.654361E-13
        88   7 -2.155405E+05 -2.653221E+05 -9.617252E+04  2.116592E+05  1.323489E-12  0.000000E+00
        88   8 -1.899970E+05 -2.827306E+05 -9.454552E+04  2.182807E+05  0.000000E+00 -5.293956E-12
        88   9 -1.486136E+05 -3.058089E+05 -9.088449E+04  2.286737E+05  9.098987E-13 -2.977850E-12
        88  10 -2.905017E+05 -1.848571E+05 -9.507178E+04  2.351191E+05 -1.654361E-13  1.654361E-13
        88  11 -2.758906E+05 -1.937514E+05 -9.392839E+04  2.527811E+05 -4.135903E-14 -8.271806E-14
        88  12 -2.518095E+05 -2.047436E+05 -9.131061E+04  2.774759E+05  2.067952E-14  3.722313E-13
        88  13 -2.443377E+05 -2.197670E+05 -9.282094E+04  2.276697E+05 -1.654361E-13 -6.617445E-13
        88  14 -2.234717E+05 -2.323586E+05 -9.116605E+04  2.404655E+05  1.654361E-13  0.000000E+00
        88  15 -1.898776E+05 -2.484957E+05 -8.767466E+04  2.590265E+05 -2.067952E-14 -9.512577E-13
        88  16 -2.155405E+05 -2.653221E+05 -9.617252E+04  2.116592E+05 -8.271806E-14  0.000000E+00
        88  17 -1.899970E+05 -2.827306E+05 -9.454552E+04  2.182807E+05  1.240771E-13 -4.963084E-13
        88  18 -1.486136E+05 -3.058089E+05 -9.088449E+04  2.286737E+05  3.101927E-14  4.342698E-13
        88  19 -2.905017E+05 -1.848571E+05 -9.507178E+04  2.351191E+05 -9.926167E-13  1.323489E-12
        88  20 -2.758906E+05 -1.937514E+05 -9.392839E+04  2.527811E+05 -8.685396E-13 -6.617445E-13
        88  21 -2.518095E+05 -2.047436E+05 -9.131061E+04  2.774759E+05 -4.342698E-13 -2.129990E-12
        88  22 -2.443377E+05 -2.197670E+05 -9.282094E+04  2.276697E+05 -1.654361E-12  3.970467E-12
        88  23 -2.234717E+05 -2.323586E+05 -9.116605E+04  2.404655E+05 -3.308722E-13  0.000000E+00
        88  24 -1.898776E+05 -2.484957E+05 -8.767466E+04  2.590265E+05 -6.617445E-13  2.812414E-12
        88  25 -2.155405E+05 -2.653221E+05 -9.617252E+04  2.116592E+05 -6.617445E-13  0.000000E+00
        88  26 -1.899970E+05 -2.827306E+05 -9.454552E+04  2.182807E+05 -9.926167E-13  0.000000E+00
        88  27 -1.486136E+05 -3.058089E+05 -9.088449E+04  2.286737E+05 -9.098987E-13  1.654361E-12
        89   1 -2.758474E+05 -2.259980E+05 -1.003691E+05  1.068047E+04  7.940934E-12 -2.382280E-11
        89   2 -2.766487E+05 -2.143521E+05 -9.820017E+04  7.872983E+03  5.955700E-12 -6.617445E-12
        89   3 -2.771175E+05 -2.016019E+05 -9.574389E+04  5.930540E+03  1.703992E-11 -6.815968E-11
        89   4 -2.850125E+05 -2.141332E+05 -9.982914E+04  3.626850E+04  1.588187E-11  0.000000E+00
        89   5 -2.822018E+05 -2.048675E+05 -9.741385E+04  3.031213E+04 -9.264423E-12  0.000000E+00
        89   6 -2.792089E+05 -1.972723E+05 -9.529624E+04  2.519966E+04  1.488925E-11 -2.514629E-11
        89   7 -2.921837E+05 -2.029744E+05 -9.903163E+04  6.208653E+04  2.117582E-11  2.117582E-11
        89   8 -2.844081E+05 -1.938808E+05 -9.565777E+04  5.162633E+04 -2.646978E-12 -3.176374E-11
        89   9 -2.758406E+05 -1.895908E+05 -9.308629E+04  4.111906E+04 -1.919059E-11  0.000000E+00
        89  10 -2.758474E+05 -2.259980E+05 -1.003691E+05  1.068047E+04 -6.617445E-13 -1.323489E-12
        89  11 -2.766487E+05 -2.143521E+05 -9.820017E+04  7.872983E+03  3.308722E-13  2.646978E-12
        89  12 -2.771175E+05 -2.016019E+05 -9.574389E+04  5.930540E+03  9.926167E-13 -5.293956E-12
        89  13 -2.850125E+05 -2.141332E+05 -9.982914E+04  3.626850E+04  0.000000E+00 -5.293956E-12
        89  14 -2.822018E+05 -2.048675E+05 -9.741385E+04  3.031213E+04  6.617445E-13 -2.646978E-12
        89  15 -2.792089E+05 -1.972723E+05 -9.529624E+04  2.519966E+04 -1.654361E-13  6.617445E-13
        89  16 -2.921837E+05 -2.029744E+05 -9.903163E+04  6.208653E+04  6.617445E-13 -1.323489E-12
        89  17 -2.844081E+05 -1.938808E+05 -9.565777E+04  5.162633E+04  0.000000E+00 -2.646978E-12
        89  18 -2.758406E+05 -1.895908E+05 -9.308629E+04  4.111906E+04  4.963084E-13 -4.632211E-12
        89  19 -2.758474E+05 -2.259980E+05 -1.003691E+05  1.068047E+04 -1.323489E-11 -1.852885E-11
        89  20 -2.766487E+05 -2.143521E+05 -9.820017E+04  7.872983E+03 -5.955700E-12  6.617445E-12
        89  21 -2.771175E+05 -2.016019E+05 -9.574389E+04  5.930540E+03 -1.703992E-11  4.698386E-11
        89  22 -2.850125E+05 -2.141332E+05 -9.982914E+04  3.626850E+04 -1.588187E-11 -2.117582E-11
        89  23 -2.822018E+05 -2.048675E+05 -9.741385E+04  3.031213E+04 -1.323489E-12  0.000000E+00
        89  24 -2.792089E+05 -1.972723E+05 -9.529624E+04  2.519966E+04 -9.595295E-12  2.514629E-11
        89  25 -2.921837E+05 -2.029744E+05 -9.903163E+04  6.208653E+04 -5.293956E-12 -2.117582E-11
        89  26 -2.844081E+05 -1.938808E+05 -9.565777E+04  5.162633E+04 -2.646978E-12  1.058791E-11
        89  27 -2.758406E+05 -1.895908E+05 -9.308629E+04  4.111906E+04  3.308722E-12  0.000000E+00
        90   1 -2.806127E+05 -1.946582E+05 -9.505416E+04  5.776682E+03 -4.632211E-12 -7.940934E-12
        90   2 -2.738534E+05 -1.822566E+05 -9.122201E+04  5.736939E+03  6.948317E-12 -3.441071E-11
        90   3 -2.674794E+05 -1.716896E+05 -8.783380E+04  5.254826E+03  4.632211E-12 -3.374897E-11
        90   4 -2.745498E+05 -1.910085E+05 -9.311165E+04  2.347642E+04  1.323489E-11  2.117582E-11
        90   5 -2.681905E+05 -1.790272E+05 -8.944354E+04  2.386346E+04 -1.720536E-11  1.588187E-11
        90   6 -2.618282E+05 -1.680740E+05 -8.598042E+04  2.393404E+04 -9.926167E-13  6.617445E-12
        90   7 -2.773684E+05 -1.897496E+05 -9.342359E+04  4.212842E+04  5.293956E-12 -4.235165E-11
        90   8 -2.701900E+05 -1.775665E+05 -8.955130E+04  4.269023E+04  0.000000E+00  0.000000E+00
        90   9 -2.629421E+05 -1.655335E+05 -8.569511E+04  4.320786E+04  1.654361E-11 -1.985233E-11
        90  10 -2.806127E+05 -1.946582E+05 -9.505416E+04  5.776682E+03  0.000000E+00  0.000000E+00
        90  11 -2.738534E+05 -1.822566E+05 -9.122201E+04  5.736939E+03 -9.926167E-13  0.000000E+00
        90  12 -2.674794E+05 -1.716896E+05 -8.783380E+04  5.254826E+03 -2.481542E-13 -3.308722E-12
        90  13 -2.745498E+05 -1.910085E+05 -9.311165E+04  2.347642E+04  1.323489E-12 -5.293956E-12
        90  14 -2.681905E+05 -1.790272E+05 -8.944354E+04  2.386346E+04  1.323489E-12 -1.058791E-11
        90  15 -2.618282E+05 -1.680740E+05 -8.598042E+04  2.393404E+04  2.977850E-12  6.617445E-13
        90  16 -2.773684E+05 -1.897496E+05 -9.342359E+04  4.212842E+04 -6.617445E-13  0.000000E+00
        90  17 -2.701900E+05 -1.775665E+05 -8.955130E+04  4.269023E+04  3.308722E-13 -7.940934E-12
        90  18 -2.629421E+05 -1.655335E+05 -8.569511E+04  4.320786E+04 -8.271806E-14 -1.985233E-12
        90  19 -2.806127E+05 -1.946582E+05 -9.505416E+04  5.776682E+03 -6.617445E-13  7.940934E-12
        90  20 -2.738534E+05 -1.822566E+05 -9.122201E+04  5.736939E+03 -6.948317E-12  3.441071E-11
        90  21 -2.674794E+05 -1.716896E+05 -8.783380E+04  5.254826E+03 -4.632211E-12  1.257315E-11
        90  22 -2.745498E+05 -1.910085E+05 -9.311165E+04  2.347642E+04 -2.646978E-12 -2.117582E-11
        90  23 -2.681905E+05 -1.790272E+05 -8.944354E+04  2.386346E+04  6.617445E-12  5.293956E-12
        90  24 -2.618282E+05 -1.680740E+05 -8.598042E+04  2.393404E+04 -9.595295E-12 -6.617445E-12
        90  25 -2.773684E+05 -1.897496E+05 -9.342359E+04  4.212842E+04 -5.293956E-12  0.000000E+00
        90  26 -2.701900E+05 -1.775665E+05 -8.955130E+04  4.269023E+04 -5.293956E-12  0.000000E+00
        90  27 -2.629421E+05 -1.655335E+05 -8.569511E+04  4.320786E+04 -1.654361E-11 -2.249931E-11
        91   1 -2.937874E+05 -1.925772E+05 -9.727292E+04  7.230403E+04  3.970467E-12 -2.382280E-11
        91   2 -2.838160E+05 -1.903943E+05 -9.484207E+04  5.987844E+04  1.985233E-12  3.970467E-12
        91   3 -2.771053E+05 -1.848390E+05 -9.238885E+04  4.773804E+04 -8.602678E-12 -1.290402E-11
        91   4 -2.999777E+05 -1.684190E+05 -9.367934E+04  7.655001E+04  1.588187E-11 -4.235165E-11
        91   5 -2.866723E+05 -1.724782E+05 -9.183010E+04  6.501473E+04  2.646978E-12  3.705769E-11
        91   6 -2.769121E+05 -1.770205E+05 -9.078653E+04  5.315370E+04  1.323489E-12  1.323489E-11
        91   7 -3.007911E+05 -1.448761E+05 -8.913344E+04  8.038449E+04  2.117582E-11 -4.235165E-11
        91   8 -2.830868E+05 -1.521061E+05 -8.703857E+04  6.771154E+04  1.588187E-11  4.235165E-11
        91   9 -2.686897E+05 -1.609919E+05 -8.593630E+04  5.355306E+04  6.617445E-12  5.293956E-12
        91  10 -2.937874E+05 -1.925772E+05 -9.727292E+04  7.230403E+04  0.000000E+00  2.646978E-12
        91  11 -2.838160E+05 -1.903943E+05 -9.484207E+04  5.987844E+04  0.000000E+00 -3.970467E-12
        91  12 -2.771053E+05 -1.848390E+05 -9.238885E+04  4.773804E+04 -4.963084E-13  6.617445E-13
        91  13 -2.999777E+05 -1.684190E+05 -9.367934E+04  7.655001E+04  0.000000E+00  0.000000E+00
        91  14 -2.866723E+05 -1.724782E+05 -9.183010E+04  6.501473E+04  3.970467E-12 -2.646978E-12
        91  15 -2.769121E+05 -1.770205E+05 -9.078653E+04  5.315370E+04  0.000000E+00 -7.279189E-12
        91  16 -3.007911E+05 -1.448761E+05 -8.913344E+04  8.038449E+04 -1.323489E-12 -2.646978E-12
        91  17 -2.830868E+05 -1.521061E+05 -8.703857E+04  6.771154E+04  6.617445E-13 -2.646978E-12
        91  18 -2.686897E+05 -1.609919E+05 -8.593630E+04  5.355306E+04 -1.654361E-13 -5.293956E-12
        91  19 -2.937874E+05 -1.925772E+05 -9.727292E+04  7.230403E+04 -1.455838E-11 -1.852885E-11
        91  20 -2.838160E+05 -1.903943E+05 -9.484207E+04  5.987844E+04  8.602678E-12 -2.514629E-11
        91  21 -2.771053E+05 -1.848390E+05 -9.238885E+04  4.773804E+04 -1.257315E-11  1.290402E-11
        91  22 -2.999777E+05 -1.684190E+05 -9.367934E+04  7.655001E+04 -1.588187E-11  2.117582E-11
        91  23 -2.866723E+05 -1.724782E+05 -9.183010E+04  6.501473E+04  7.940934E-12 -1.588187E-11
        91  24 -2.769121E+05 -1.770205E+05 -9.078653E+04  5.315370E+04  9.264423E-12  2.911676E-11
        91  25 -3.007911E+05 -1.448761E+05 -8.913344E+04  8.038449E+04 -3.176374E-11  2.117582E-11
        91  26 -2.830868E+05 -1.521061E+05 -8.703857E+04  6.771154E+04 -1.588187E-11  0.000000E+00
        91  27 -2.686897E+05 -1.609919E+05 -8.593630E+04  5.355306E+04 -1.720536E-11 -2.646978E-11
        92   1 -2.685275E+05 -2.902534E+05 -1.117562E+05  7.668825E+03  5.293956E-12 -9.264423E-12
        92   2 -2.679921E+05 -2.805106E+05 -1.097005E+05  6.366453E+03  1.191140E-11 -2.646978E-11
        92   3 -2.667843E+05 -2.680060E+05 -1.069581E+05  4.592938E+03  5.666187E-12 -3.722313E-11
        92   4 -2.820607E+05 -2.885488E+05 -1.141219E+05  2.931451E+04  2.646978E-12  5.293956E-12
        92   5 -2.802078E+05 -2.795081E+05 -1.119432E+05  2.583543E+04 -2.646978E-12  2.646978E-12
        92   6 -2.783833E+05 -2.696158E+05 -1.095998E+05  2.178324E+04  7.940934E-12 -6.617445E-13
        92   7 -2.948987E+05 -2.871444E+05 -1.164086E+05  5.176032E+04 -2.646978E-12 -1.058791E-11
        92   8 -2.918287E+05 -2.783745E+05 -1.140406E+05  4.559975E+04  1.058791E-11  0.000000E+00
        92   9 -2.899947E+05 -2.715978E+05 -1.123185E+05  3.838059E+04  1.389663E-11 -5.293956E-12
        92  10 -2.685275E+05 -2.902534E+05 -1.117562E+05  7.668825E+03  3.308722E-13 -1.323489E-12
        92  11 -2.679921E+05 -2.805106E+05 -1.097005E+05  6.366453E+03 -3.308722E-13 -6.617445E-13
        92  12 -2.667843E+05 -2.680060E+05 -1.069581E+05  4.592938E+03  4.135903E-13 -3.308722E-13
        92  13 -2.820607E+05 -2.885488E+05 -1.141219E+05  2.931451E+04  1.323489E-12 -2.646978E-12
        92  14 -2.802078E+05 -2.795081E+05 -1.119432E+05  2.583543E+04  1.323489E-12 -3.970467E-12
        92  15 -2.783833E+05 -2.696158E+05 -1.095998E+05  2.178324E+04  1.985233E-12 -3.639595E-12
        92  16 -2.948987E+05 -2.871444E+05 -1.164086E+05  5.176032E+04 -6.617445E-13  1.323489E-12
        92  17 -2.918287E+05 -2.783745E+05 -1.140406E+05  4.559975E+04  1.654361E-13  5.955700E-12
        92  18 -2.899947E+05 -2.715978E+05 -1.123185E+05  3.838059E+04  3.722313E-13 -1.654361E-13
        92  19 -2.685275E+05 -2.902534E+05 -1.117562E+05  7.668825E+03 -5.293956E-12  9.264423E-12
        92  20 -2.679921E+05 -2.805106E+05 -1.097005E+05  6.366453E+03 -6.617445E-12  5.293956E-12
        92  21 -2.667843E+05 -2.680060E+05 -1.069581E+05  4.592938E+03 -3.019209E-12  2.663522E-11
        92  22 -2.820607E+05 -2.885488E+05 -1.141219E+05  2.931451E+04 -2.646978E-12 -5.293956E-12
        92  23 -2.802078E+05 -2.795081E+05 -1.119432E+05  2.583543E+04 -2.646978E-12  7.940934E-12
        92  24 -2.783833E+05 -2.696158E+05 -1.095998E+05  2.178324E+04 -2.646978E-12  6.617445E-13
        92  25 -2.948987E+05 -2.871444E+05 -1.164086E+05  5.176032E+04  2.646978E-12  0.000000E+00
        92  26 -2.918287E+05 -2.783745E+05 -1.140406E+05  4.559975E+04 -5.293956E-12  1.058791E-11
        92  27 -2.899947E+05 -2.715978E+05 -1.123185E+05  3.838059E+04 -8.602678E-12  5.293956E-12
        93   1 -2.682213E+05 -2.603737E+05 -1.057190E+05  4.791198E+03  6.617445E-13 -1.455838E-11
        93   2 -2.706620E+05 -2.497374E+05 -1.040799E+05  5.860294E+03  6.617445E-13  6.617445E-13
        93   3 -2.728871E+05 -2.379046E+05 -1.021583E+05  7.567769E+03  9.181705E-12 -8.437242E-12
        93   4 -2.773460E+05 -2.638367E+05 -1.082365E+05  2.200226E+04  2.646978E-12  2.646978E-11
        93   5 -2.803629E+05 -2.552290E+05 -1.071184E+05  2.629963E+04 -6.617445E-12  1.323489E-11
        93   6 -2.830273E+05 -2.457528E+05 -1.057560E+05  3.027534E+04  8.271806E-12 -3.374897E-11
        93   7 -2.858407E+05 -2.670828E+05 -1.105847E+05  3.936902E+04  1.588187E-11  0.000000E+00
        93   8 -2.927174E+05 -2.615225E+05 -1.108480E+05  4.595855E+04 -1.058791E-11 -1.588187E-11
        93   9 -2.977799E+05 -2.551543E+05 -1.105868E+05  5.125712E+04  1.588187E-11 -2.646978E-12
        93  10 -2.682213E+05 -2.603737E+05 -1.057190E+05  4.791198E+03  6.617445E-13 -1.323489E-12
        93  11 -2.706620E+05 -2.497374E+05 -1.040799E+05  5.860294E+03  3.308722E-13  0.000000E+00
        93  12 -2.728871E+05 -2.379046E+05 -1.021583E+05  7.567769E+03  7.031035E-13 -3.143286E-12
        93  13 -2.773460E+05 -2.638367E+05 -1.082365E+05  2.200226E+04  0.000000E+00  5.293956E-12
        93  14 -2.803629E+05 -2.552290E+05 -1.071184E+05  2.629963E+04  6.617445E-13  0.000000E+00
        93  15 -2.830273E+05 -2.457528E+05 -1.057560E+05  3.027534E+04  0.000000E+00 -1.323489E-12
        93  16 -2.858407E+05 -2.670828E+05 -1.105847E+05  3.936902E+04 -6.617445E-13  1.323489E-12
        93  17 -2.927174E+05 -2.615225E+05 -1.108480E+05  4.595855E+04 -3.308722E-13  6.617445E-13
        93  18 -2.977799E+05 -2.551543E+05 -1.105868E+05  5.125712E+04  1.240771E-13 -1.985233E-12
        93  19 -2.682213E+05 -2.603737E+05 -1.057190E+05  4.791198E+03 -5.955700E-12  2.514629E-11
        93  20 -2.706620E+05 -2.497374E+05 -1.040799E+05  5.860294E+03 -5.955700E-12 -2.183757E-11
        93  21 -2.728871E+05 -2.379046E+05 -1.021583E+05  7.567769E+03 -9.181705E-12  2.961307E-11
        93  22 -2.773460E+05 -2.638367E+05 -1.082365E+05  2.200226E+04 -7.940934E-12  5.293956E-12
        93  23 -2.803629E+05 -2.552290E+05 -1.071184E+05  2.629963E+04  1.323489E-12 -2.646978E-12
        93  24 -2.830273E+05 -2.457528E+05 -1.057560E+05  3.027534E+04 -8.271806E-12  1.257315E-11
        93  25 -2.858407E+05 -2.670828E+05 -1.105847E+05  3.936902E+04 -5.293956E-12  0.000000E+00
        93  26 -2.927174E+05 -2.615225E+05 -1.108480E+05  4.595855E+04 -5.293956E-12 -5.293956E-12
        93  27 -2.977799E+05 -2.551543E+05 -1.105868E+05  5.125712E+04 -1.058791E-11  1.323489E-11
        94   1 -3.035171E+05 -2.815153E+05 -1.170065E+05  6.755837E+04  2.646978E-12 -9.264423E-12
        94   2 -3.009041E+05 -2.778035E+05 -1.157415E+05  5.430824E+04  9.595295E-12 -5.293956E-12
        94   3 -2.923123E+05 -2.704115E+05 -1.125448E+05  4.535225E+04  1.050519E-11 -2.481542E-11
        94   4 -3.253942E+05 -2.793841E+05 -1.209557E+05  8.792225E+04  1.588187E-11 -1.058791E-11
        94   5 -3.106207E+05 -2.730574E+05 -1.167356E+05  7.097855E+04 -9.264423E-12  7.940934E-12
        94   6 -2.964607E+05 -2.655312E+05 -1.123984E+05  5.398724E+04  1.323489E-12  3.970467E-12
        94   7 -3.384799E+05 -2.753655E+05 -1.227691E+05  1.076335E+05  5.293956E-12  0.000000E+00
        94   8 -3.183500E+05 -2.681294E+05 -1.172959E+05  8.743194E+04  1.058791E-11 -2.117582E-11
        94   9 -3.055077E+05 -2.618743E+05 -1.134764E+05  6.469126E+04  8.602678E-12 -1.985233E-11
        94  10 -3.035171E+05 -2.815153E+05 -1.170065E+05  6.755837E+04 -6.617445E-13 -1.323489E-12
        94  11 -3.009041E+05 -2.778035E+05 -1.157415E+05  5.430824E+04  6.617445E-13  3.308722E-12
        94  12 -2.923123E+05 -2.704115E+05 -1.125448E+05  4.535225E+04 -1.158053E-12  8.271806E-13
        94  13 -3.253942E+05 -2.793841E+05 -1.209557E+05  8.792225E+04  0.000000E+00  5.293956E-12
        94  14 -3.106207E+05 -2.730574E+05 -1.167356E+05  7.097855E+04 -4.632211E-12  1.323489E-12
        94  15 -2.964607E+05 -2.655312E+05 -1.123984E+05  5.398724E+04  6.617445E-13  1.654361E-12
        94  16 -3.384799E+05 -2.753655E+05 -1.227691E+05  1.076335E+05 -1.323489E-12  0.000000E+00
        94  17 -3.183500E+05 -2.681294E+05 -1.172959E+05  8.743194E+04  2.316106E-12 -1.985233E-12
        94  18 -3.055077E+05 -2.618743E+05 -1.134764E+05  6.469126E+04  3.308722E-13 -2.316106E-12
        94  19 -3.035171E+05 -2.815153E+05 -1.170065E+05  6.755837E+04 -2.646978E-12  9.264423E-12
        94  20 -3.009041E+05 -2.778035E+05 -1.157415E+05  5.430824E+04 -9.595295E-12  5.293956E-12
        94  21 -2.923123E+05 -2.704115E+05 -1.125448E+05  4.535225E+04 -1.050519E-11  3.639595E-12
        94  22 -3.253942E+05 -2.793841E+05 -1.209557E+05  8.792225E+04 -2.117582E-11  1.058791E-11
        94  23 -3.106207E+05 -2.730574E+05 -1.167356E+05  7.097855E+04 -1.323489E-12 -7.940934E-12
        94  24 -2.964607E+05 -2.655312E+05 -1.123984E+05  5.398724E+04 -1.323489E-12  6.617445E-12
        94  25 -3.384799E+05 -2.753655E+05 -1.227691E+05  1.076335E+05 -5.293956E-12  0.000000E+00
        94  26 -3.183500E+05 -2.681294E+05 -1.172959E+05  8.743194E+04 -1.588187E-11  1.058791E-11
        94  27 -3.055077E+05 -2.618743E+05 -1.134764E+05  6.469126E+04 -1.389663E-11  9.264423E-12
        95   1 -1.214332E+05 -1.014947E+05 -4.458558E+04 -2.155445E+02  2.646978E-12  7.146840E-11
        95   2 -1.173133E+05 -1.013181E+05 -4.372628E+04  5.736848E+01  9.595295E-12 -6.485096E-11
        95   3 -1.131605E+05 -1.009984E+05 -4.283178E+04  2.459392E+02  3.970467E-12 -2.117582E-11
        95   4 -1.267362E+05 -1.015108E+05 -4.564940E+04 -6.844805E+02  0.000000E+00 -4.235165E-11
        95   5 -1.226163E+05 -1.014929E+05 -4.482186E+04 -4.318492E+02  1.323489E-12 -5.293956E-12
        95   6 -1.185260E+05 -1.014108E+05 -4.398736E+04 -3.313390E+02  8.602678E-12 -5.823352E-11
        95   7 -1.319944E+05 -1.017549E+05 -4.674987E+04 -1.153938E+03  5.293956E-12 -2.117582E-11
        95   8 -1.279930E+05 -1.020895E+05 -4.601650E+04 -9.922631E+02  2.646978E-12  1.058791E-11
        95   9 -1.241978E+05 -1.026109E+05 -4.536174E+04 -1.138011E+03 -1.852885E-11  5.293956E-12
        95  10 -1.214332E+05 -1.014947E+05 -4.458558E+04 -2.155445E+02  6.617445E-13  2.646978E-12
        95  11 -1.173133E+05 -1.013181E+05 -4.372628E+04  5.736848E+01  0.000000E+00 -1.323489E-12
        95  12 -1.131605E+05 -1.009984E+05 -4.283178E+04  2.459392E+02  9.926167E-13 -2.977850E-12
        95  13 -1.267362E+05 -1.015108E+05 -4.564940E+04 -6.844805E+02  0.000000E+00  0.000000E+00
        95  14 -1.226163E+05 -1.014929E+05 -4.482186E+04 -4.318492E+02  0.000000E+00 -5.293956E-12
        95  15 -1.185260E+05 -1.014108E+05 -4.398736E+04 -3.313390E+02  9.926167E-13 -7.940934E-12
        95  16 -1.319944E+05 -1.017549E+05 -4.674987E+04 -1.153938E+03 -6.617445E-13  2.646978E-12
        95  17 -1.279930E+05 -1.020895E+05 -4.601650E+04 -9.922631E+02 -6.617445E-13 -3.970467E-12
        95  18 -1.241978E+05 -1.026109E+05 -4.536174E+04 -1.138011E+03  1.158053E-12  6.617445E-13
        95  19 -1.214332E+05 -1.014947E+05 -4.458558E+04 -2.155445E+02  7.940934E-12 -7.940934E-12
        95  20 -1.173133E+05 -1.013181E+05 -4.372628E+04  5.736848E+01  9.926167E-13  2.249931E-11
        95  21 -1.131605E+05 -1.009984E+05 -4.283178E+04  2.459392E+02 -1.455838E-11  4.235165E-11
        95  22 -1.267362E+05 -1.015108E+05 -4.564940E+04 -6.844805E+02 -5.293956E-12  2.117582E-11
        95  23 -1.226163E+05 -1.014929E+05 -4.482186E+04 -4.318492E+02 -1.323489E-12  2.646978E-11
        95  24 -1.185260E+05 -1.014108E+05 -4.398736E+04 -3.313390E+02  7.279189E-12  1.588187E-11
        95  25 -1.319944E+05 -1.017549E+05 -4.674987E+04 -1.153938E+03 -5.293956E-12  0.000000E+00
        95  26 -1.279930E+05 -1.020895E+05 -4.601650E+04 -9.922631E+02 -2.646978E-12  3.176374E-11
        95  27 -1.241978E+05 -1.026109E+05 -4.536174E+04 -1.138011E+03  7.940934E-12 -5.293956E-12
        96   1 -1.106703E+05 -1.005744E+05 -4.224894E+04  2.998133E+02  1.985233E-11  1.852885E-11
        96   2 -1.080629E+05 -1.017965E+05 -4.197188E+04 -4.294229E+02 -7.279189E-12  1.852885E-11
        96   3 -1.053437E+05 -1.022148E+05 -4.151171E+04 -5.028633E+02  7.527344E-12 -9.264423E-12
        96   4 -1.168648E+05 -1.013418E+05 -4.364133E+04 -3.270693E+02  2.646978E-12 -7.411538E-11
        96   5 -1.146212E+05 -1.009657E+05 -4.311739E+04  2.068044E+02  2.646978E-12  1.058791E-11
        96   6 -1.123300E+05 -1.001586E+05 -4.249773E+04  7.638605E+02 -5.624828E-12 -3.970467E-12
        96   7 -1.223154E+05 -1.033074E+05 -4.512457E+04 -2.781407E+02  5.293956E-12 -2.117582E-11
        96   8 -1.225478E+05 -1.021864E+05 -4.494683E+04 -2.865019E+02  7.940934E-12 -6.352747E-11
        96   9 -1.220035E+05 -1.008210E+05 -4.456491E+04 -4.501307E+02 -7.940934E-12 -5.293956E-11
        96  10 -1.106703E+05 -1.005744E+05 -4.224894E+04  2.998133E+02  0.000000E+00  2.646978E-12
        96  11 -1.080629E+05 -1.017965E+05 -4.197188E+04 -4.294229E+02  6.617445E-13 -7.940934E-12
        96  12 -1.053437E+05 -1.022148E+05 -4.151171E+04 -5.028633E+02 -4.963084E-13 -1.654361E-12
        96  13 -1.168648E+05 -1.013418E+05 -4.364133E+04 -3.270693E+02  0.000000E+00  0.000000E+00
        96  14 -1.146212E+05 -1.009657E+05 -4.311739E+04  2.068044E+02  0.000000E+00  0.000000E+00
        96  15 -1.123300E+05 -1.001586E+05 -4.249773E+04  7.638605E+02  2.977850E-12 -3.970467E-12
        96  16 -1.223154E+05 -1.033074E+05 -4.512457E+04 -2.781407E+02 -6.617445E-13  0.000000E+00
        96  17 -1.225478E+05 -1.021864E+05 -4.494683E+04 -2.865019E+02  6.617445E-13  0.000000E+00
        96  18 -1.220035E+05 -1.008210E+05 -4.456491E+04 -4.501307E+02  1.488925E-12 -2.977850E-12
        96  19 -1.106703E+05 -1.005744E+05 -4.224894E+04  2.998133E+02  1.323489E-12 -1.852885E-11
        96  20 -1.080629E+05 -1.017965E+05 -4.197188E+04 -4.294229E+02  1.985233E-12  2.646978E-12
        96  21 -1.053437E+05 -1.022148E+05 -4.151171E+04 -5.028633E+02 -7.527344E-12  9.264423E-12
        96  22 -1.168648E+05 -1.013418E+05 -4.364133E+04 -3.270693E+02 -7.940934E-12 -1.058791E-11
        96  23 -1.146212E+05 -1.009657E+05 -4.311739E+04  2.068044E+02  1.323489E-11 -1.058791E-11
        96  24 -1.123300E+05 -1.001586E+05 -4.249773E+04  7.638605E+02  3.308722E-13  4.632211E-11
        96  25 -1.223154E+05 -1.033074E+05 -4.512457E+04 -2.781407E+02 -5.293956E-12  2.117582E-11
        96  26 -1.225478E+05 -1.021864E+05 -4.494683E+04 -2.865019E+02 -2.646978E-12  8.470329E-11
        96  27 -1.220035E+05 -1.008210E+05 -4.456491E+04 -4.501307E+02  2.646978E-12  1.058791E-11
        97   1 -1.366456E+05 -1.057436E+05 -4.847783E+04 -3.060260E+03  7.279189E-12 -8.205632E-11
        97   2 -1.298040E+05 -9.972857E+04 -4.590651E+04 -1.385232E+03  6.286573E-12 -5.029258E-11
        97   3 -1.249062E+05 -1.015082E+05 -4.528289E+04 -4.863323E+02  7.444626E-12 -1.720536E-11
        97   4 -1.413151E+05 -1.086569E+05 -4.999440E+04 -3.708410E+03  0.000000E+00 -4.235165E-11
        97   5 -1.327224E+05 -1.031484E+05 -4.717414E+04 -1.811602E+03 -2.646978E-12  1.058791E-11
        97   6 -1.263525E+05 -1.026577E+05 -4.580204E+04 -1.690403E+03 -2.547716E-11  2.514629E-11
        97   7 -1.448888E+05 -1.116614E+05 -5.131005E+04 -3.820745E+03  0.000000E+00 -4.235165E-11
        97   8 -1.352095E+05 -1.058885E+05 -4.821961E+04 -1.919812E+03  1.323489E-11  1.058791E-11
        97   9 -1.281813E+05 -1.031337E+05 -4.626299E+04 -2.491179E+03 -5.293956E-12 -4.499863E-11
        97  10 -1.366456E+05 -1.057436E+05 -4.847783E+04 -3.060260E+03  0.000000E+00  2.646978E-12
        97  11 -1.298040E+05 -9.972857E+04 -4.590651E+04 -1.385232E+03  1.985233E-12  6.617445E-12
        97  12 -1.249062E+05 -1.015082E+05 -4.528289E+04 -4.863323E+02 -3.308722E-13  9.926167E-13
        97  13 -1.413151E+05 -1.086569E+05 -4.999440E+04 -3.708410E+03 -2.646978E-12  0.000000E+00
        97  14 -1.327224E+05 -1.031484E+05 -4.717414E+04 -1.811602E+03  1.323489E-12 -5.293956E-12
        97  15 -1.263525E+05 -1.026577E+05 -4.580204E+04 -1.690403E+03  3.308722E-13  1.323489E-12
        97  16 -1.448888E+05 -1.116614E+05 -5.131005E+04 -3.820745E+03  0.000000E+00  0.000000E+00
        97  17 -1.352095E+05 -1.058885E+05 -4.821961E+04 -1.919812E+03 -2.646978E-12  1.191140E-11
        97  18 -1.281813E+05 -1.031337E+05 -4.626299E+04 -2.491179E+03 -2.150670E-12  9.926167E-13
        97  19 -1.366456E+05 -1.057436E+05 -4.847783E+04 -3.060260E+03  3.308722E-12  8.205632E-11
        97  20 -1.298040E+05 -9.972857E+04 -4.590651E+04 -1.385232E+03 -6.286573E-12 -3.441071E-11
        97  21 -1.249062E+05 -1.015082E+05 -4.528289E+04 -4.863323E+02 -7.444626E-12  5.955700E-11
        97  22 -1.413151E+05 -1.086569E+05 -4.999440E+04 -3.708410E+03  0.000000E+00  0.000000E+00
        97  23 -1.327224E+05 -1.031484E+05 -4.717414E+04 -1.811602E+03  2.646978E-12 -1.058791E-11
        97  24 -1.263525E+05 -1.026577E+05 -4.580204E+04 -1.690403E+03  9.595295E-12 -3.970467E-12
        97  25 -1.448888E+05 -1.116614E+05 -5.131005E+04 -3.820745E+03 -1.058791E-11  0.000000E+00
        97  26 -1.352095E+05 -1.058885E+05 -4.821961E+04 -1.919812E+03 -2.646978E-12 -1.058791E-11
        97  27 -1.281813E+05 -1.031337E+05 -4.626299E+04 -2.491179E+03  0.000000E+00  2.646978E-12
        98   1 -1.474534E+05 -1.124731E+05 -5.198530E+04 -4.076131E+03  1.588187E-11 -2.646978E-12
        98   2 -1.446485E+05 -1.127753E+05 -5.148476E+04 -2.314681E+03  2.316106E-12 -2.779327E-11
        98   3 -1.408672E+05 -1.128119E+05 -5.073582E+04 -4.380498E+02  1.108422E-11  9.595295E-12
        98   4 -1.435057E+05 -1.110425E+05 -5.090964E+04 -4.023132E+03  1.588187E-11 -2.117582E-11
        98   5 -1.428468E+05 -1.117349E+05 -5.091633E+04 -3.499881E+03  2.117582E-11  1.058791E-11
        98   6 -1.411754E+05 -1.121474E+05 -5.066456E+04 -3.188690E+03  1.389663E-11 -5.293956E-11
        98   7 -1.376805E+05 -1.058512E+05 -4.870634E+04 -2.535785E+03  5.293956E-12 -4.235165E-11
        98   8 -1.391013E+05 -1.057692E+05 -4.897411E+04 -3.184028E+03  2.117582E-11  3.176374E-11
        98   9 -1.394087E+05 -1.046481E+05 -4.881135E+04 -4.536258E+03  9.264423E-12 -2.646978E-12
        98  10 -1.474534E+05 -1.124731E+05 -5.198530E+04 -4.076131E+03  1.323489E-12 -2.646978E-12
        98  11 -1.446485E+05 -1.127753E+05 -5.148476E+04 -2.314681E+03 -6.617445E-13 -9.264423E-12
        98  12 -1.408672E+05 -1.128119E+05 -5.073582E+04 -4.380498E+02 -5.790264E-13 -2.977850E-12
        98  13 -1.435057E+05 -1.110425E+05 -5.090964E+04 -4.023132E+03  2.646978E-12  0.000000E+00
        98  14 -1.428468E+05 -1.117349E+05 -5.091633E+04 -3.499881E+03  1.323489E-12  0.000000E+00
        98  15 -1.411754E+05 -1.121474E+05 -5.066456E+04 -3.188690E+03  2.977850E-12  2.646978E-12
        98  16 -1.376805E+05 -1.058512E+05 -4.870634E+04 -2.535785E+03  1.323489E-12  5.293956E-12
        98  17 -1.391013E+05 -1.057692E+05 -4.897411E+04 -3.184028E+03 -6.617445E-13  3.970467E-12
        98  18 -1.394087E+05 -1.046481E+05 -4.881135E+04 -4.536258E+03 -8.271806E-13  3.639595E-12
        98  19 -1.474534E+05 -1.124731E+05 -5.198530E+04 -4.076131E+03 -5.293956E-12  2.382280E-11
        98  20 -1.446485E+05 -1.127753E+05 -5.148476E+04 -2.314681E+03 -1.290402E-11 -1.455838E-11
        98  21 -1.408672E+05 -1.128119E+05 -5.073582E+04 -4.380498E+02 -5.790264E-12  3.275635E-11
        98  22 -1.435057E+05 -1.110425E+05 -5.090964E+04 -4.023132E+03 -5.293956E-12  0.000000E+00
        98  23 -1.428468E+05 -1.117349E+05 -5.091633E+04 -3.499881E+03  0.000000E+00  1.058791E-11
        98  24 -1.411754E+05 -1.121474E+05 -5.066456E+04 -3.188690E+03 -8.602678E-12 -3.176374E-11
        98  25 -1.376805E+05 -1.058512E+05 -4.870634E+04 -2.535785E+03 -5.293956E-12  4.235165E-11
        98  26 -1.391013E+05 -1.057692E+05 -4.897411E+04 -3.184028E+03 -1.058791E-11  3.176374E-11
        98  27 -1.394087E+05 -1.046481E+05 -4.881135E+04 -4.536258E+03  1.323489E-12  2.382280E-11
        99   1 -1.452002E+05 -1.151142E+05 -5.206289E+04 -5.649728E+03  7.279189E-12 -3.705769E-11
        99   2 -1.468996E+05 -1.176535E+05 -5.291060E+04 -7.339349E+03 -9.926167E-13 -3.573420E-11
        99   3 -1.470628E+05 -1.189886E+05 -5.321028E+04 -7.759745E+03  9.264423E-12  4.632211E-11
        99   4 -1.410265E+05 -1.059630E+05 -4.939791E+04 -4.365339E+03  5.293956E-12  0.000000E+00
        99   5 -1.410567E+05 -1.068711E+05 -4.958556E+04 -4.189996E+03  0.000000E+00 -2.646978E-11
        99   6 -1.394275E+05 -1.068155E+05 -4.924860E+04 -3.287456E+03  2.316106E-12 -3.308722E-11
        99   7 -1.402386E+05 -1.083374E+05 -4.971521E+04 -5.046993E+03  1.588187E-11 -2.117582E-11
        99   8 -1.370969E+05 -1.026159E+05 -4.794258E+04 -2.089844E+03 -1.323489E-11  1.058791E-11
        99   9 -1.327069E+05 -9.819996E+04 -4.618136E+04  4.874724E+02  1.985233E-12 -6.088049E-11
        99  10 -1.452002E+05 -1.151142E+05 -5.206289E+04 -5.649728E+03  0.000000E+00  0.000000E+00
        99  11 -1.468996E+05 -1.176535E+05 -5.291060E+04 -7.339349E+03  0.000000E+00  5.293956E-12
        99  12 -1.470628E+05 -1.189886E+05 -5.321028E+04 -7.759745E+03 -9.926167E-13  5.955700E-12
        99  13 -1.410265E+05 -1.059630E+05 -4.939791E+04 -4.365339E+03  2.646978E-12  1.058791E-11
        99  14 -1.410567E+05 -1.068711E+05 -4.958556E+04 -4.189996E+03 -1.323489E-12  5.293956E-12
        99  15 -1.394275E+05 -1.068155E+05 -4.924860E+04 -3.287456E+03 -6.617445E-13 -1.323489E-12
        99  16 -1.402386E+05 -1.083374E+05 -4.971521E+04 -5.046993E+03  6.617445E-13  1.058791E-11
        99  17 -1.370969E+05 -1.026159E+05 -4.794258E+04 -2.089844E+03  0.000000E+00  0.000000E+00
        99  18 -1.327069E+05 -9.819996E+04 -4.618136E+04  4.874724E+02 -8.271806E-13 -9.926167E-13
        99  19 -1.452002E+05 -1.151142E+05 -5.206289E+04 -5.649728E+03 -1.985233E-12  1.588187E-11
        99  20 -1.468996E+05 -1.176535E+05 -5.291060E+04 -7.339349E+03  9.926167E-13 -2.779327E-11
        99  21 -1.470628E+05 -1.189886E+05 -5.321028E+04 -7.759745E+03 -3.970467E-12 -2.514629E-11
        99  22 -1.410265E+05 -1.059630E+05 -4.939791E+04 -4.365339E+03 -5.293956E-12  0.000000E+00
        99  23 -1.410567E+05 -1.068711E+05 -4.958556E+04 -4.189996E+03 -1.058791E-11 -1.588187E-11
        99  24 -1.394275E+05 -1.068155E+05 -4.924860E+04 -3.287456E+03 -7.610062E-12  3.308722E-11
        99  25 -1.402386E+05 -1.083374E+05 -4.971521E+04 -5.046993E+03 -5.293956E-12  0.000000E+00
        99  26 -1.370969E+05 -1.026159E+05 -4.794258E+04 -2.089844E+03  2.646978E-12 -1.058791E-11
        99  27 -1.327069E+05 -9.819996E+04 -4.618136E+04  4.874724E+02  3.308722E-12  6.088049E-11
       100   1 -1.341876E+05 -1.022769E+05 -4.729289E+04 -1.614847E+03  1.588187E-11 -2.646978E-12
       100   2 -1.365513E+05 -1.035271E+05 -4.801568E+04 -2.188246E+03 -3.308722E-13 -3.176374E-11
       100   3 -1.390020E+05 -1.050582E+05 -4.881203E+04 -2.677082E+03 -1.670905E-11 -3.143286E-11
       100   4 -1.286074E+05 -1.016191E+05 -4.604531E+04 -8.386690E+02  1.058791E-11  2.117582E-11
       100   5 -1.318723E+05 -1.026402E+05 -4.690251E+04 -1.480333E+03 -2.646978E-12 -1.058791E-11
       100   6 -1.352726E+05 -1.032636E+05 -4.770724E+04 -1.767552E+03  1.191140E-11 -3.838118E-11
       100   7 -1.233629E+05 -1.008039E+05 -4.483334E+04 -2.091131E+02 -1.588187E-11  2.117582E-11
       100   8 -1.266112E+05 -1.006941E+05 -4.546107E+04 -3.187693E+02  1.323489E-11  6.352747E-11
       100   9 -1.296691E+05 -9.942184E+04 -4.581820E+04  3.238491E+02 -7.279189E-12 -7.940934E-12
       100  10 -1.341876E+05 -1.022769E+05 -4.729289E+04 -1.614847E+03 -1.323489E-12  0.000000E+00
       100  11 -1.365513E+05 -1.035271E+05 -4.801568E+04 -2.188246E+03 -1.985233E-12 -5.293956E-12
       100  12 -1.390020E+05 -1.050582E+05 -4.881203E+04 -2.677082E+03 -4.963084E-13 -5.293956E-12
       100  13 -1.286074E+05 -1.016191E+05 -4.604531E+04 -8.386690E+02  0.000000E+00 -1.058791E-11
       100  14 -1.318723E+05 -1.026402E+05 -4.690251E+04 -1.480333E+03  0.000000E+00  1.588187E-11
       100  15 -1.352726E+05 -1.032636E+05 -4.770724E+04 -1.767552E+03 -2.316106E-12 -1.323489E-12
       100  16 -1.233629E+05 -1.008039E+05 -4.483334E+04 -2.091131E+02 -1.323489E-12 -5.293956E-12
       100  17 -1.266112E+05 -1.006941E+05 -4.546107E+04 -3.187693E+02 -3.970467E-12  7.940934E-12
       100  18 -1.296691E+05 -9.942184E+04 -4.581820E+04  3.238491E+02 -1.902515E-12 -3.308722E-13
       100  19 -1.341876E+05 -1.022769E+05 -4.729289E+04 -1.614847E+03  0.000000E+00 -1.852885E-11
       100  20 -1.365513E+05 -1.035271E+05 -4.801568E+04 -2.188246E+03  3.308722E-13  7.411538E-11
       100  21 -1.390020E+05 -1.050582E+05 -4.881203E+04 -2.677082E+03  1.141509E-11 -3.209461E-11
       100  22 -1.286074E+05 -1.016191E+05 -4.604531E+04 -8.386690E+02  0.000000E+00 -2.117582E-11
       100  23 -1.318723E+05 -1.026402E+05 -4.690251E+04 -1.480333E+03 -2.646978E-12 -3.176374E-11
       100  24 -1.352726E+05 -1.032636E+05 -4.770724E+04 -1.767552E+03 -1.323489E-12  3.838118E-11
       100  25 -1.233629E+05 -1.008039E+05 -4.483334E+04 -2.091131E+02 -5.293956E-12  2.117582E-11
       100  26 -1.266112E+05 -1.006941E+05 -4.546107E+04 -3.187693E+02 -2.646978E-12 -2.117582E-11
       100  27 -1.296691E+05 -9.942184E+04 -4.581820E+04  3.238491E+02  1.985233E-12 -1.323489E-11
       101   1 -1.292618E+05 -1.124291E+05 -4.833817E+04  1.446367E+04 -1.488925E-12  2.522901E-12
       101   2 -1.269417E+05 -1.053696E+05 -4.646225E+04  9.700769E+03 -1.313149E-12  2.150670E-12
       101   3 -1.255479E+05 -1.008154E+05 -4.527268E+04  4.028738E+03 -1.395867E-12  2.299304E-12
       101   4 -1.487970E+05 -1.021224E+05 -5.018387E+04  1.626337E+04 -9.098987E-13  1.778438E-12
       101   5 -1.463062E+05 -9.246800E+04 -4.775484E+04  1.172593E+04 -8.271806E-14 -4.135903E-14
       101   6 -1.448631E+05 -8.471769E+04 -4.591615E+04  6.146673E+03 -9.615975E-13  1.364848E-12
       101   7 -1.781162E+05 -1.009799E+05 -5.581922E+04  2.428958E+04 -1.654361E-13  1.819797E-12
       101   8 -1.768755E+05 -8.876390E+04 -5.312787E+04  2.084582E+04 -4.963084E-13  1.364848E-12
       101   9 -1.777785E+05 -7.749136E+04 -5.105397E+04  1.669251E+04 -6.410650E-13  9.822770E-13
       101  10 -1.292618E+05 -1.124291E+05 -4.833817E+04  1.446367E+04  0.000000E+00 -5.169879E-15
       101  11 -1.269417E+05 -1.053696E+05 -4.646225E+04  9.700769E+03  8.271806E-14 -5.169879E-15
       101  12 -1.255479E+05 -1.008154E+05 -4.527268E+04  4.028738E+03  0.000000E+00  0.000000E+00
       101  13 -1.487970E+05 -1.021224E+05 -5.018387E+04  1.626337E+04 -8.271806E-14  2.067952E-14
       101  14 -1.463062E+05 -9.246800E+04 -4.775484E+04  1.172593E+04  0.000000E+00  1.033976E-14
       101  15 -1.448631E+05 -8.471769E+04 -4.591615E+04  6.146673E+03  4.135903E-14 -2.584939E-15
       101  16 -1.781162E+05 -1.009799E+05 -5.581922E+04  2.428958E+04  4.135903E-14  0.000000E+00
       101  17 -1.768755E+05 -8.876390E+04 -5.312787E+04  2.084582E+04  8.271806E-14 -1.033976E-14
       101  18 -1.777785E+05 -7.749136E+04 -5.105397E+04  1.669251E+04 -3.618915E-14 -4.523644E-15
       101  19 -1.292618E+05 -1.124291E+05 -4.833817E+04  1.446367E+04  1.158053E-12 -2.460862E-12
       101  20 -1.269417E+05 -1.053696E+05 -4.646225E+04  9.700769E+03  1.313149E-12 -2.150670E-12
       101  21 -1.255479E+05 -1.008154E+05 -4.527268E+04  4.028738E+03  1.561303E-12 -2.299304E-12
       101  22 -1.487970E+05 -1.021224E+05 -5.018387E+04  1.626337E+04  9.098987E-13 -1.861156E-12
       101  23 -1.463062E+05 -9.246800E+04 -4.775484E+04  1.172593E+04  4.135903E-13  0.000000E+00
       101  24 -1.448631E+05 -8.471769E+04 -4.591615E+04  6.146673E+03  9.615975E-13 -1.344168E-12
       101  25 -1.781162E+05 -1.009799E+05 -5.581922E+04  2.428958E+04  1.654361E-13 -1.819797E-12
       101  26 -1.768755E+05 -8.876390E+04 -5.312787E+04  2.084582E+04  6.617445E-13 -1.364848E-12
       101  27 -1.777785E+05 -7.749136E+04 -5.105397E+04  1.669251E+04  6.410650E-13 -9.822770E-13
       102   1 -1.271216E+05 -9.325861E+04 -4.407605E+04  4.983649E+01 -1.613002E-12  2.057612E-12
       102   2 -1.270961E+05 -6.536131E+04 -3.849149E+04 -1.372603E+04 -5.480072E-13  1.004249E-12
       102   3 -1.262661E+05 -3.896561E+04 -3.304635E+04 -2.723730E+04 -1.731909E-13  2.284440E-13
       102   4 -1.594106E+05 -8.702314E+04 -4.928674E+04  1.106438E+04 -6.617445E-13  1.323489E-12
       102   5 -1.632175E+05 -6.888710E+04 -4.642091E+04  3.364610E+03 -4.135903E-14  0.000000E+00
       102   6 -1.666252E+05 -4.821490E+04 -4.296801E+04 -4.373001E+03 -1.240771E-13  1.861156E-13
       102   7 -1.711064E+05 -7.095046E+04 -4.841136E+04  1.171020E+04 -3.308722E-13  9.098987E-13
       102   8 -1.890890E+05 -6.907135E+04 -5.163208E+04  1.676641E+04 -3.308722E-13  5.583469E-13
       102   9 -2.032288E+05 -5.653876E+04 -5.195351E+04  1.877813E+04 -8.271806E-14  1.731909E-13
       102  10 -1.271216E+05 -9.325861E+04 -4.407605E+04  4.983649E+01  4.135903E-14  5.654555E-16
       102  11 -1.270961E+05 -6.536131E+04 -3.849149E+04 -1.372603E+04 -1.033976E-14  3.554292E-15
       102  12 -1.262661E+05 -3.896561E+04 -3.304635E+04 -2.723730E+04  0.000000E+00 -4.261111E-15
       102  13 -1.594106E+05 -8.702314E+04 -4.928674E+04  1.106438E+04 -4.135903E-14  1.292470E-15
       102  14 -1.632175E+05 -6.888710E+04 -4.642091E+04  3.364610E+03 -4.135903E-14 -1.615587E-16
       102  15 -1.666252E+05 -4.821490E+04 -4.296801E+04 -4.373001E+03  0.000000E+00 -1.615587E-16
       102  16 -1.711064E+05 -7.095046E+04 -4.841136E+04  1.171020E+04  0.000000E+00  2.423381E-16
       102  17 -1.890890E+05 -6.907135E+04 -5.163208E+04  1.676641E+04 -1.033976E-14  1.615587E-16
       102  18 -2.032288E+05 -5.653876E+04 -5.195351E+04  1.877813E+04 -2.584939E-15  3.029226E-16
       102  19 -1.271216E+05 -9.325861E+04 -4.407605E+04  4.983649E+01  1.282130E-12 -2.057612E-12
       102  20 -1.270961E+05 -6.536131E+04 -3.849149E+04 -1.372603E+04  5.480072E-13 -9.835694E-13
       102  21 -1.262661E+05 -3.896561E+04 -3.304635E+04 -2.723730E+04  1.525114E-13 -2.387838E-13
       102  22 -1.594106E+05 -8.702314E+04 -4.928674E+04  1.106438E+04  6.617445E-13 -1.313149E-12
       102  23 -1.632175E+05 -6.888710E+04 -4.642091E+04  3.364610E+03 -4.135903E-14  1.033976E-14
       102  24 -1.666252E+05 -4.821490E+04 -4.296801E+04 -4.373001E+03  1.240771E-13 -1.887006E-13
       102  25 -1.711064E+05 -7.095046E+04 -4.841136E+04  1.171020E+04  3.308722E-13 -8.892192E-13
       102  26 -1.890890E+05 -6.907135E+04 -5.163208E+04  1.676641E+04  4.135903E-13 -5.686867E-13
       102  27 -2.032288E+05 -5.653876E+04 -5.195351E+04  1.877813E+04  8.271806E-14 -1.731909E-13
       103   1 -1.924232E+05 -9.299108E+04 -5.708286E+04  3.478329E+04 -4.756289E-13  1.346753E-12
       103   2 -1.857761E+05 -8.687099E+04 -5.452941E+04  2.466351E+04 -1.654361E-13  1.085675E-12
       103   3 -1.778811E+05 -7.936657E+04 -5.144953E+04  1.631514E+04 -6.617445E-13  1.096014E-12
       103   4 -2.203132E+05 -7.746494E+04 -5.955563E+04  4.626104E+04 -1.137373E-13  6.733767E-13
       103   5 -2.106621E+05 -7.365583E+04 -5.686359E+04  3.483189E+04  8.271806E-14  4.652891E-14
       103   6 -1.981925E+05 -6.921894E+04 -5.348229E+04  2.320527E+04 -1.654361E-13  4.859686E-13
       103   7 -2.533986E+05 -6.792341E+04 -6.426440E+04  6.147962E+04 -2.326445E-14  1.231077E-13
       103   8 -2.386224E+05 -6.411424E+04 -6.054733E+04  4.705510E+04 -7.237830E-14  1.176147E-13
       103   9 -2.192438E+05 -5.924572E+04 -5.569791E+04  3.057380E+04 -6.203855E-14  1.240771E-13
       103  10 -1.924232E+05 -9.299108E+04 -5.708286E+04  3.478329E+04 -2.067952E-14  0.000000E+00
       103  11 -1.857761E+05 -8.687099E+04 -5.452941E+04  2.466351E+04 -3.101927E-14  1.550964E-14
       103  12 -1.778811E+05 -7.936657E+04 -5.144953E+04  1.631514E+04  2.584939E-15  7.754818E-15
       103  13 -2.203132E+05 -7.746494E+04 -5.955563E+04  4.626104E+04  0.000000E+00 -2.067952E-14
       103  14 -2.106621E+05 -7.365583E+04 -5.686359E+04  3.483189E+04  0.000000E+00  1.033976E-14
       103  15 -1.981925E+05 -6.921894E+04 -5.348229E+04  2.320527E+04  0.000000E+00 -2.584939E-15
       103  16 -2.533986E+05 -6.792341E+04 -6.426440E+04  6.147962E+04  0.000000E+00  0.000000E+00
       103  17 -2.386224E+05 -6.411424E+04 -6.054733E+04  4.705510E+04  1.033976E-14 -5.169879E-15
       103  18 -2.192438E+05 -5.924572E+04 -5.569791E+04  3.057380E+04 -5.169879E-15 -1.292470E-15
       103  19 -1.924232E+05 -9.299108E+04 -5.708286E+04  3.478329E+04  3.101927E-13 -1.264035E-12
       103  20 -1.857761E+05 -8.687099E+04 -5.452941E+04  2.466351E+04  4.963084E-13 -1.002956E-12
       103  21 -1.778811E+05 -7.936657E+04 -5.144953E+04  1.631514E+04  6.617445E-13 -1.096014E-12
       103  22 -2.203132E+05 -7.746494E+04 -5.955563E+04  4.626104E+04  1.137373E-13 -5.079406E-13
       103  23 -2.106621E+05 -7.365583E+04 -5.686359E+04  3.483189E+04  0.000000E+00 -5.169879E-15
       103  24 -1.981925E+05 -6.921894E+04 -5.348229E+04  2.320527E+04  3.308722E-13 -5.066481E-13
       103  25 -2.533986E+05 -6.792341E+04 -6.426440E+04  6.147962E+04  8.530300E-14 -1.437873E-13
       103  26 -2.386224E+05 -6.411424E+04 -6.054733E+04  4.705510E+04  7.237830E-14 -1.176147E-13
       103  27 -2.192438E+05 -5.924572E+04 -5.569791E+04  3.057380E+04  8.271806E-14 -1.292470E-13
       104   1 -2.532821E+05 -8.596570E+04 -6.784957E+04  6.853372E+04 -2.481542E-13  6.307252E-13
       104   2 -2.095683E+05 -9.951668E+04 -6.181700E+04  4.985318E+04  4.135903E-14  1.137373E-12
       104   3 -1.731579E+05 -1.271571E+05 -6.006301E+04  3.680742E+04 -9.641824E-13  2.288964E-12
       104   4 -2.237482E+05 -9.481845E+04 -6.371334E+04  5.351851E+04 -4.135903E-13  9.512577E-13
       104   5 -1.895987E+05 -1.074626E+05 -5.941226E+04  3.951667E+04 -3.308722E-13  0.000000E+00
       104   6 -1.543398E+05 -1.173689E+05 -5.434174E+04  2.466293E+04 -4.446096E-13  2.083461E-12
       104   7 -1.839006E+05 -9.374786E+04 -5.552968E+04  3.180708E+04 -8.271806E-13  1.323489E-12
       104   8 -1.710430E+05 -1.162943E+05 -5.746745E+04  2.985741E+04 -9.098987E-13  1.902515E-12
       104   9 -1.507588E+05 -1.154712E+05 -5.324599E+04  2.112972E+04 -8.685396E-13  2.150670E-12
       104  10 -2.532821E+05 -8.596570E+04 -6.784957E+04  6.853372E+04 -4.135903E-14  1.033976E-14
       104  11 -2.095683E+05 -9.951668E+04 -6.181700E+04  4.985318E+04  5.169879E-14 -1.033976E-14
       104  12 -1.731579E+05 -1.271571E+05 -6.006301E+04  3.680742E+04  7.754818E-14  5.557620E-14
       104  13 -2.237482E+05 -9.481845E+04 -6.371334E+04  5.351851E+04  4.135903E-14  2.067952E-14
       104  14 -1.895987E+05 -1.074626E+05 -5.941226E+04  3.951667E+04  0.000000E+00 -4.135903E-14
       104  15 -1.543398E+05 -1.173689E+05 -5.434174E+04  2.466293E+04 -2.067952E-13  6.979336E-14
       104  16 -1.839006E+05 -9.374786E+04 -5.552968E+04  3.180708E+04  2.067952E-14 -1.033976E-14
       104  17 -1.710430E+05 -1.162943E+05 -5.746745E+04  2.985741E+04  2.067952E-14  2.067952E-14
       104  18 -1.507588E+05 -1.154712E+05 -5.324599E+04  2.112972E+04  4.652891E-14  3.489668E-14
       104  19 -2.532821E+05 -8.596570E+04 -6.784957E+04  6.853372E+04  8.271806E-14 -5.893662E-13
       104  20 -2.095683E+05 -9.951668E+04 -6.181700E+04  4.985318E+04  2.895132E-13 -9.719372E-13
       104  21 -1.731579E+05 -1.271571E+05 -6.006301E+04  3.680742E+04  1.625927E-12 -2.288964E-12
       104  22 -2.237482E+05 -9.481845E+04 -6.371334E+04  5.351851E+04  4.135903E-13 -9.512577E-13
       104  23 -1.895987E+05 -1.074626E+05 -5.941226E+04  3.951667E+04  3.308722E-13  0.000000E+00
       104  24 -1.543398E+05 -1.173689E+05 -5.434174E+04  2.466293E+04  4.446096E-13 -2.083461E-12
       104  25 -1.839006E+05 -9.374786E+04 -5.552968E+04  3.180708E+04  8.271806E-13 -1.323489E-12
       104  26 -1.710430E+05 -1.162943E+05 -5.746745E+04  2.985741E+04  5.790264E-13 -1.737079E-12
       104  27 -1.507588E+05 -1.154712E+05 -5.324599E+04  2.112972E+04  8.685396E-13 -1.985233E-12
       105   1 -1.500422E+05 -1.324469E+05 -5.649780E+04  2.721488E+04 -1.075335E-12  2.843433E-12
       105   2 -1.248093E+05 -1.214236E+05 -4.924660E+04  1.340471E+04  4.549493E-13  2.543580E-12
       105   3 -1.044043E+05 -1.154920E+05 -4.397927E+04  3.316358E+03 -1.070165E-12  2.740036E-12
       105   4 -1.480381E+05 -1.228575E+05 -5.417912E+04  2.308895E+04 -6.617445E-13  2.481542E-12
       105   5 -1.275605E+05 -1.197974E+05 -4.947158E+04  1.464688E+04  6.617445E-13  4.135903E-14
       105   6 -1.103119E+05 -1.168071E+05 -4.542380E+04  8.213920E+03 -3.101927E-13  2.223048E-12
       105   7 -1.408476E+05 -1.120908E+05 -5.058768E+04  1.555280E+04 -9.926167E-13  2.233388E-12
       105   8 -1.280630E+05 -1.188460E+05 -4.938180E+04  1.519125E+04 -8.271806E-13  1.985233E-12
       105   9 -1.151515E+05 -1.179868E+05 -4.662767E+04  1.341224E+04 -1.985233E-12  2.719356E-12
       105  10 -1.500422E+05 -1.324469E+05 -5.649780E+04  2.721488E+04  4.135903E-14 -4.135903E-14
       105  11 -1.248093E+05 -1.214236E+05 -4.924660E+04  1.340471E+04  1.033976E-13  2.067952E-14
       105  12 -1.044043E+05 -1.154920E+05 -4.397927E+04  3.316358E+03 -2.067952E-13  5.169879E-15
       105  13 -1.480381E+05 -1.228575E+05 -5.417912E+04  2.308895E+04  0.000000E+00  0.000000E+00
       105  14 -1.275605E+05 -1.197974E+05 -4.947158E+04  1.464688E+04 -1.654361E-13  6.203855E-14
       105  15 -1.103119E+05 -1.168071E+05 -4.542380E+04  8.213920E+03 -1.240771E-13  2.067952E-14
       105  16 -1.408476E+05 -1.120908E+05 -5.058768E+04  1.555280E+04  4.135903E-14 -6.203855E-14
       105  17 -1.280630E+05 -1.188460E+05 -4.938180E+04  1.519125E+04  0.000000E+00  3.101927E-14
       105  18 -1.151515E+05 -1.179868E+05 -4.662767E+04  1.341224E+04  7.237830E-14  1.292470E-14
       105  19 -1.500422E+05 -1.324469E+05 -5.649780E+04  2.721488E+04  1.075335E-12 -2.843433E-12
       105  20 -1.248093E+05 -1.214236E+05 -4.924660E+04  1.340471E+04  8.685396E-13 -2.378144E-12
       105  21 -1.044043E+05 -1.154920E+05 -4.397927E+04  3.316358E+03  1.731909E-12 -2.740036E-12
       105  22 -1.480381E+05 -1.228575E+05 -5.417912E+04  2.308895E+04  6.617445E-13 -2.316106E-12
       105  23 -1.275605E+05 -1.197974E+05 -4.947158E+04  1.464688E+04  6.617445E-13 -4.135903E-14
       105  24 -1.103119E+05 -1.168071E+05 -4.542380E+04  8.213920E+03  1.633682E-12 -2.553920E-12
       105  25 -1.408476E+05 -1.120908E+05 -5.058768E+04  1.555280E+04  1.323489E-12 -1.902515E-12
       105  26 -1.280630E+05 -1.188460E+05 -4.938180E+04  1.519125E+04  4.963084E-13 -2.316106E-12
       105  27 -1.151515E+05 -1.179868E+05 -4.662767E+04  1.341224E+04  1.985233E-12 -2.719356E-12
       106   1 -1.652668E+05 -1.000609E+05 -5.306554E+04  1.998397E+04 -4.549493E-13  1.866326E-12
       106   2 -1.567681E+05 -1.087472E+05 -5.310306E+04  1.919351E+04 -9.305782E-13  1.718985E-12
       106   3 -1.486991E+05 -1.198071E+05 -5.370125E+04  1.907048E+04 -6.410650E-13  2.651825E-12
       106   4 -1.454419E+05 -1.064467E+05 -5.037770E+04  1.696411E+04 -1.488925E-12  2.016253E-12
       106   5 -1.377959E+05 -1.108379E+05 -4.972677E+04  1.604654E+04 -1.075335E-12 -1.033976E-14
       106   6 -1.302776E+05 -1.146696E+05 -4.898944E+04  1.500880E+04 -1.654361E-13  2.255360E-12
       106   7 -1.270855E+05 -1.158106E+05 -4.857922E+04  1.567601E+04 -1.654361E-12  2.688337E-12
       106   8 -1.228579E+05 -1.187096E+05 -4.831352E+04  1.606546E+04 -1.819797E-12  2.460862E-12
       106   9 -1.195665E+05 -1.203374E+05 -4.798078E+04  1.640761E+04 -7.444626E-13  2.809829E-12
       106  10 -1.652668E+05 -1.000609E+05 -5.306554E+04  1.998397E+04  0.000000E+00  0.000000E+00
       106  11 -1.567681E+05 -1.087472E+05 -5.310306E+04  1.919351E+04  1.861156E-13 -1.033976E-14
       106  12 -1.486991E+05 -1.198071E+05 -5.370125E+04  1.907048E+04 -7.754818E-14 -1.098599E-14
       106  13 -1.454419E+05 -1.064467E+05 -5.037770E+04  1.696411E+04 -8.271806E-14  2.067952E-14
       106  14 -1.377959E+05 -1.108379E+05 -4.972677E+04  1.604654E+04  4.135903E-14 -1.033976E-14
       106  15 -1.302776E+05 -1.146696E+05 -4.898944E+04  1.500880E+04  1.033976E-14 -5.169879E-15
       106  16 -1.270855E+05 -1.158106E+05 -4.857922E+04  1.567601E+04  0.000000E+00  5.169879E-15
       106  17 -1.228579E+05 -1.187096E+05 -4.831352E+04  1.606546E+04  0.000000E+00 -2.584939E-14
       106  18 -1.195665E+05 -1.203374E+05 -4.798078E+04  1.640761E+04 -1.033976E-13 -1.744834E-14
       106  19 -1.652668E+05 -1.000609E+05 -5.306554E+04  1.998397E+04  7.858216E-13 -1.783608E-12
       106  20 -1.567681E+05 -1.087472E+05 -5.310306E+04  1.919351E+04  9.305782E-13 -1.801703E-12
       106  21 -1.486991E+05 -1.198071E+05 -5.370125E+04  1.907048E+04  1.633682E-12 -2.486389E-12
       106  22 -1.454419E+05 -1.064467E+05 -5.037770E+04  1.696411E+04  1.819797E-12 -1.933535E-12
       106  23 -1.377959E+05 -1.108379E+05 -4.972677E+04  1.604654E+04  4.135903E-13  1.033976E-14
       106  24 -1.302776E+05 -1.146696E+05 -4.898944E+04  1.500880E+04  1.654361E-13 -2.255360E-12
       106  25 -1.270855E+05 -1.158106E+05 -4.857922E+04  1.567601E+04  1.323489E-12 -2.646978E-12
       106  26 -1.228579E+05 -1.187096E+05 -4.831352E+04  1.606546E+04  1.819797E-12 -2.502221E-12
       106  27 -1.195665E+05 -1.203374E+05 -4.798078E+04  1.640761E+04  1.406207E-12 -2.809829E-12
       107   1 -8.893196E+04 -9.741954E+04 -3.727030E+04 -1.127853E+04 -2.709017E-12  2.507391E-12
       107   2 -8.497166E+04 -9.919139E+04 -3.683261E+04 -1.329192E+04 -2.502221E-12  2.310936E-12
       107   3 -8.098560E+04 -1.008452E+05 -3.636616E+04 -1.530527E+04 -2.962341E-12  2.621775E-12
       107   4 -1.001796E+05 -9.220661E+04 -3.847724E+04 -4.432037E+03 -1.902515E-12  2.026593E-12
       107   5 -9.574514E+04 -9.306864E+04 -3.776276E+04 -7.154664E+03 -1.240771E-13  8.271806E-14
       107   6 -9.081239E+04 -9.120480E+04 -3.640344E+04 -9.503568E+03 -2.150670E-12  1.980064E-12
       107   7 -1.215649E+05 -9.917150E+04 -4.414728E+04 -4.202146E+03 -1.323489E-12  2.150670E-12
       107   8 -1.164338E+05 -9.289038E+04 -4.186484E+04 -6.218609E+03 -1.240771E-12  1.778438E-12
       107   9 -1.098927E+05 -7.568690E+04 -3.711591E+04 -6.356746E+03 -1.137373E-12  1.483755E-12
       107  10 -8.893196E+04 -9.741954E+04 -3.727030E+04 -1.127853E+04  0.000000E+00 -2.067952E-14
       107  11 -8.497166E+04 -9.919139E+04 -3.683261E+04 -1.329192E+04  1.033976E-14  1.033976E-14
       107  12 -8.098560E+04 -1.008452E+05 -3.636616E+04 -1.530527E+04 -1.163223E-14  2.584939E-15
       107  13 -1.001796E+05 -9.220661E+04 -3.847724E+04 -4.432037E+03  0.000000E+00  2.067952E-14
       107  14 -9.574514E+04 -9.306864E+04 -3.776276E+04 -7.154664E+03  2.067952E-14  2.067952E-14
       107  15 -9.081239E+04 -9.120480E+04 -3.640344E+04 -9.503568E+03  2.584939E-14  1.033976E-14
       107  16 -1.215649E+05 -9.917150E+04 -4.414728E+04 -4.202146E+03 -1.033976E-14  1.033976E-14
       107  17 -1.164338E+05 -9.289038E+04 -4.186484E+04 -6.218609E+03 -5.169879E-15  1.033976E-14
       107  18 -1.098927E+05 -7.568690E+04 -3.711591E+04 -6.356746E+03 -2.584939E-14 -1.550964E-14
       107  19 -8.893196E+04 -9.741954E+04 -3.727030E+04 -1.127853E+04  2.667657E-12 -2.466032E-12
       107  20 -8.497166E+04 -9.919139E+04 -3.683261E+04 -1.329192E+04  2.543580E-12 -2.310936E-12
       107  21 -8.098560E+04 -1.008452E+05 -3.636616E+04 -1.530527E+04  2.962341E-12 -2.704493E-12
       107  22 -1.001796E+05 -9.220661E+04 -3.847724E+04 -4.432037E+03  1.902515E-12 -2.026593E-12
       107  23 -9.574514E+04 -9.306864E+04 -3.776276E+04 -7.154664E+03  4.135903E-14  0.000000E+00
       107  24 -9.081239E+04 -9.120480E+04 -3.640344E+04 -9.503568E+03  2.150670E-12 -1.980064E-12
       107  25 -1.215649E+05 -9.917150E+04 -4.414728E+04 -4.202146E+03  1.323489E-12 -2.150670E-12
       107  26 -1.164338E+05 -9.289038E+04 -4.186484E+04 -6.218609E+03  1.240771E-12 -1.778438E-12
       107  27 -1.098927E+05 -7.568690E+04 -3.711591E+04 -6.356746E+03  1.302809E-12 -1.649191E-12
       108   1 -6.916647E+04 -1.070192E+05 -3.523713E+04 -1.484577E+04 -3.422460E-12  2.957171E-12
       108   2 -6.730891E+04 -9.713596E+04 -3.288897E+04 -1.810130E+04 -2.802074E-12  2.391069E-12
       108   3 -6.672424E+04 -8.998549E+04 -3.134195E+04 -2.033528E+04 -2.880915E-12  2.438244E-12
       108   4 -9.907427E+04 -8.434997E+04 -3.668485E+04 -1.369434E+04 -1.571643E-12  1.716400E-12
       108   5 -9.638298E+04 -9.069823E+04 -3.741624E+04 -1.475285E+04  6.203855E-14 -6.203855E-14
       108   6 -9.553044E+04 -9.675729E+04 -3.845755E+04 -1.559445E+04 -1.902515E-12  2.124820E-12
       108   7 -1.094878E+05 -9.099332E+04 -4.009622E+04 -9.812691E+03 -1.819797E-12  2.109311E-12
       108   8 -1.100495E+05 -8.565587E+04 -3.914107E+04 -4.825591E+03 -9.098987E-13  1.654361E-12
       108   9 -1.116521E+05 -8.664912E+04 -3.966025E+04 -2.228432E+03 -1.664701E-12  1.974894E-12
       108  10 -6.916647E+04 -1.070192E+05 -3.523713E+04 -1.484577E+04  0.000000E+00  5.169879E-15
       108  11 -6.730891E+04 -9.713596E+04 -3.288897E+04 -1.810130E+04 -5.169879E-15 -5.169879E-15
       108  12 -6.672424E+04 -8.998549E+04 -3.134195E+04 -2.033528E+04 -1.292470E-15  1.098599E-14
       108  13 -9.907427E+04 -8.434997E+04 -3.668485E+04 -1.369434E+04 -2.067952E-14  0.000000E+00
       108  14 -9.638298E+04 -9.069823E+04 -3.741624E+04 -1.475285E+04 -4.135903E-14 -1.033976E-14
       108  15 -9.553044E+04 -9.675729E+04 -3.845755E+04 -1.559445E+04  4.394397E-14 -5.169879E-15
       108  16 -1.094878E+05 -9.099332E+04 -4.009622E+04 -9.812691E+03 -5.169879E-15  5.169879E-15
       108  17 -1.100495E+05 -8.565587E+04 -3.914107E+04 -4.825591E+03 -1.033976E-14  1.809458E-14
       108  18 -1.116521E+05 -8.664912E+04 -3.966025E+04 -2.228432E+03  3.101927E-14  3.877409E-15
       108  19 -6.916647E+04 -1.070192E+05 -3.523713E+04 -1.484577E+04  3.401780E-12 -2.957171E-12
       108  20 -6.730891E+04 -9.713596E+04 -3.288897E+04 -1.810130E+04  2.781395E-12 -2.391069E-12
       108  21 -6.672424E+04 -8.998549E+04 -3.134195E+04 -2.033528E+04  2.880915E-12 -2.448584E-12
       108  22 -9.907427E+04 -8.434997E+04 -3.668485E+04 -1.369434E+04  1.654361E-12 -1.757759E-12
       108  23 -9.638298E+04 -9.069823E+04 -3.741624E+04 -1.475285E+04 -6.203855E-14 -2.067952E-14
       108  24 -9.553044E+04 -9.675729E+04 -3.845755E+04 -1.559445E+04  1.737079E-12 -2.124820E-12
       108  25 -1.094878E+05 -9.099332E+04 -4.009622E+04 -9.812691E+03  1.488925E-12 -2.026593E-12
       108  26 -1.100495E+05 -8.565587E+04 -3.914107E+04 -4.825591E+03  1.240771E-12 -1.654361E-12
       108  27 -1.116521E+05 -8.664912E+04 -3.966025E+04 -2.228432E+03  1.664701E-12 -1.974894E-12
       109   1 -1.153405E+05 -1.080769E+05 -4.468347E+04  4.808108E+03 -1.613002E-12  2.603034E-12
       109   2 -1.140502E+05 -1.090996E+05 -4.462996E+04 -4.675438E+02 -1.592323E-12  2.444060E-12
       109   3 -1.141384E+05 -9.491170E+04 -4.181002E+04 -4.477270E+03 -1.504435E-12  2.238234E-12
       109   4 -1.125326E+05 -9.991892E+04 -4.249030E+04  1.523211E+04 -1.158053E-12  2.088631E-12
       109   5 -1.165443E+05 -1.073429E+05 -4.477744E+04  5.715252E+03 -2.481542E-13  1.033976E-14
       109   6 -1.218311E+05 -8.719109E+04 -4.180444E+04 -1.798074E+02 -1.240771E-12  1.708645E-12
       109   7 -1.116245E+05 -1.179044E+05 -4.590577E+04  1.895508E+04 -2.977850E-12  2.853773E-12
       109   8 -1.202913E+05 -1.214219E+05 -4.834264E+04  7.596646E+03 -2.150670E-12  2.522901E-12
       109   9 -1.299195E+05 -8.579515E+04 -4.314293E+04  2.232832E+03 -1.033976E-12  1.783608E-12
       109  10 -1.153405E+05 -1.080769E+05 -4.468347E+04  4.808108E+03  4.135903E-14 -5.169879E-15
       109  11 -1.140502E+05 -1.090996E+05 -4.462996E+04 -4.675438E+02  2.067952E-14 -1.033976E-14
       109  12 -1.141384E+05 -9.491170E+04 -4.181002E+04 -4.477270E+03  1.033976E-14  1.874081E-14
       109  13 -1.125326E+05 -9.991892E+04 -4.249030E+04  1.523211E+04 -8.271806E-14  0.000000E+00
       109  14 -1.165443E+05 -1.073429E+05 -4.477744E+04  5.715252E+03 -8.271806E-14  0.000000E+00
       109  15 -1.218311E+05 -8.719109E+04 -4.180444E+04 -1.798074E+02 -4.135903E-14 -1.292470E-14
       109  16 -1.116245E+05 -1.179044E+05 -4.590577E+04  1.895508E+04  8.271806E-14  0.000000E+00
       109  17 -1.202913E+05 -1.214219E+05 -4.834264E+04  7.596646E+03 -8.271806E-14 -1.292470E-14
       109  18 -1.299195E+05 -8.579515E+04 -4.314293E+04  2.232832E+03 -2.067952E-14  0.000000E+00
       109  19 -1.153405E+05 -1.080769E+05 -4.468347E+04  4.808108E+03  1.613002E-12 -2.685752E-12
       109  20 -1.140502E+05 -1.090996E+05 -4.462996E+04 -4.675438E+02  1.757759E-12 -2.444060E-12
       109  21 -1.141384E+05 -9.491170E+04 -4.181002E+04 -4.477270E+03  1.835307E-12 -2.155516E-12
       109  22 -1.125326E+05 -9.991892E+04 -4.249030E+04  1.523211E+04  1.488925E-12 -2.047272E-12
       109  23 -1.165443E+05 -1.073429E+05 -4.477744E+04  5.715252E+03  8.271806E-14  7.237830E-14
       109  24 -1.218311E+05 -8.719109E+04 -4.180444E+04 -1.798074E+02  1.406207E-12 -1.708645E-12
       109  25 -1.116245E+05 -1.179044E+05 -4.590577E+04  1.895508E+04  2.977850E-12 -2.853773E-12
       109  26 -1.202913E+05 -1.214219E+05 -4.834264E+04  7.596646E+03  1.819797E-12 -2.564260E-12
       109  27 -1.299195E+05 -8.579515E+04 -4.314293E+04  2.232832E+03  1.199412E-12 -1.700890E-12
       110   1 -1.164917E+05 -1.163381E+05 -4.656597E+04  1.755184E+04 -2.295426E-12  2.698677E-12
       110   2 -1.120327E+05 -1.061394E+05 -4.363441E+04  1.517248E+04 -2.057612E-12  2.326445E-12
       110   3 -1.076043E+05 -1.125088E+05 -4.402261E+04  7.757181E+03 -2.388484E-12  2.955232E-12
       110   4 -1.173778E+05 -1.197048E+05 -4.741652E+04  9.008992E+03 -1.737079E-12  2.564260E-12
       110   5 -1.124343E+05 -1.103095E+05 -4.454875E+04  7.724778E+03  3.722313E-13 -6.203855E-14
       110   6 -1.103370E+05 -1.091721E+05 -4.390183E+04  2.991065E+03 -1.675041E-12  2.414333E-12
       110   7 -1.181557E+05 -1.000950E+05 -4.365014E+04  5.643746E+03 -1.819797E-12  2.316106E-12
       110   8 -1.100876E+05 -1.011620E+05 -4.224994E+04  4.177302E+03 -1.654361E-12  2.067952E-12
       110   9 -1.077924E+05 -1.030296E+05 -4.216440E+04  1.043149E+03 -1.985233E-12  2.528071E-12
       110  10 -1.164917E+05 -1.163381E+05 -4.656597E+04  1.755184E+04  4.135903E-14  5.169879E-15
       110  11 -1.120327E+05 -1.061394E+05 -4.363441E+04  1.517248E+04  8.271806E-14  1.809458E-14
       110  12 -1.076043E+05 -1.125088E+05 -4.402261E+04  7.757181E+03 -4.135903E-14  1.357093E-14
       110  13 -1.173778E+05 -1.197048E+05 -4.741652E+04  9.008992E+03  0.000000E+00  0.000000E+00
       110  14 -1.124343E+05 -1.103095E+05 -4.454875E+04  7.724778E+03 -4.135903E-14  0.000000E+00
       110  15 -1.103370E+05 -1.091721E+05 -4.390183E+04  2.991065E+03 -7.237830E-14  2.584939E-15
       110  16 -1.181557E+05 -1.000950E+05 -4.365014E+04  5.643746E+03 -4.135903E-14  1.033976E-14
       110  17 -1.100876E+05 -1.011620E+05 -4.224994E+04  4.177302E+03 -6.203855E-14 -1.292470E-14
       110  18 -1.077924E+05 -1.030296E+05 -4.216440E+04  1.043149E+03  2.067952E-14  1.486340E-14
       110  19 -1.164917E+05 -1.163381E+05 -4.656597E+04  1.755184E+04  1.633682E-12 -2.822754E-12
       110  20 -1.120327E+05 -1.061394E+05 -4.363441E+04  1.517248E+04  1.726740E-12 -2.202368E-12
       110  21 -1.076043E+05 -1.125088E+05 -4.402261E+04  7.757181E+03  2.388484E-12 -2.872514E-12
       110  22 -1.173778E+05 -1.197048E+05 -4.741652E+04  9.008992E+03  1.406207E-12 -2.481542E-12
       110  23 -1.124343E+05 -1.103095E+05 -4.454875E+04  7.724778E+03 -4.135903E-14 -2.067952E-14
       110  24 -1.103370E+05 -1.091721E+05 -4.390183E+04  2.991065E+03  1.840477E-12 -2.331615E-12
       110  25 -1.181557E+05 -1.000950E+05 -4.365014E+04  5.643746E+03  1.323489E-12 -2.316106E-12
       110  26 -1.100876E+05 -1.011620E+05 -4.224994E+04  4.177302E+03  1.819797E-12 -1.985233E-12
       110  27 -1.077924E+05 -1.030296E+05 -4.216440E+04  1.043149E+03  1.654361E-12 -2.610789E-12
       111   1 -1.115358E+05 -1.082292E+05 -4.395299E+04  1.562659E+03 -2.233388E-12  2.615959E-12
       111   2 -1.008073E+05 -9.993911E+04 -4.014929E+04  1.231833E+03 -1.881836E-12  2.098971E-12
       111   3 -9.832471E+04 -9.833637E+04 -3.933222E+04 -3.584084E+03 -2.702554E-12  2.497051E-12
       111   4 -1.089482E+05 -1.028992E+05 -4.236948E+04  7.168154E+02 -1.902515E-12  2.274747E-12
       111   5 -9.974782E+04 -9.934795E+04 -3.981915E+04 -6.192329E+02 -1.240771E-13 -2.067952E-14
       111   6 -9.814416E+04 -9.853730E+04 -3.933629E+04 -5.137782E+03 -2.295426E-12  2.243727E-12
       111   7 -1.042234E+05 -9.108374E+04 -3.906142E+04  1.863440E+03 -2.150670E-12  1.985233E-12
       111   8 -9.801891E+04 -9.731350E+04 -3.906648E+04 -1.965619E+03 -2.109311E-12  2.192029E-12
       111   9 -9.794226E+04 -9.885570E+04 -3.935959E+04 -6.593881E+03 -2.698677E-12  2.543580E-12
       111  10 -1.115358E+05 -1.082292E+05 -4.395299E+04  1.562659E+03 -2.067952E-14  1.033976E-14
       111  11 -1.008073E+05 -9.993911E+04 -4.014929E+04  1.231833E+03  0.000000E+00  1.033976E-14
       111  12 -9.832471E+04 -9.833637E+04 -3.933222E+04 -3.584084E+03  5.169879E-15 -2.584939E-15
       111  13 -1.089482E+05 -1.028992E+05 -4.236948E+04  7.168154E+02  0.000000E+00  2.067952E-14
       111  14 -9.974782E+04 -9.934795E+04 -3.981915E+04 -6.192329E+02  2.067952E-14  5.169879E-14
       111  15 -9.814416E+04 -9.853730E+04 -3.933629E+04 -5.137782E+03 -1.033976E-14  1.292470E-14
       111  16 -1.042234E+05 -9.108374E+04 -3.906142E+04  1.863440E+03 -2.067952E-14 -1.033976E-14
       111  17 -9.801891E+04 -9.731350E+04 -3.906648E+04 -1.965619E+03  0.000000E+00 -1.033976E-14
       111  18 -9.794226E+04 -9.885570E+04 -3.935959E+04 -6.593881E+03  1.809458E-14  1.033976E-14
       111  19 -1.115358E+05 -1.082292E+05 -4.395299E+04  1.562659E+03  1.902515E-12 -2.615959E-12
       111  20 -1.008073E+05 -9.993911E+04 -4.014929E+04  1.231833E+03  1.964554E-12 -2.181689E-12
       111  21 -9.832471E+04 -9.833637E+04 -3.933222E+04 -3.584084E+03  2.578477E-12 -2.579770E-12
       111  22 -1.089482E+05 -1.028992E+05 -4.236948E+04  7.168154E+02  1.571643E-12 -2.192029E-12
       111  23 -9.974782E+04 -9.934795E+04 -3.981915E+04 -6.192329E+02  4.135903E-14  2.067952E-14
       111  24 -9.814416E+04 -9.853730E+04 -3.933629E+04 -5.137782E+03  2.336785E-12 -2.243727E-12
       111  25 -1.042234E+05 -9.108374E+04 -3.906142E+04  1.863440E+03  2.150670E-12 -1.985233E-12
       111  26 -9.801891E+04 -9.731350E+04 -3.906648E+04 -1.965619E+03  2.192029E-12 -2.109311E-12
       111  27 -9.794226E+04 -9.885570E+04 -3.935959E+04 -6.593881E+03  2.698677E-12 -2.543580E-12
       112   1 -1.066491E+05 -9.514039E+04 -4.035791E+04  3.417940E+03 -2.190736E-12  2.176519E-12
       112   2 -1.058525E+05 -9.588791E+04 -4.034808E+04  1.868980E+03 -1.804288E-12  2.124820E-12
       112   3 -1.062433E+05 -1.007171E+05 -4.139209E+04 -1.698013E+03 -1.702021E-12  2.324507E-12
       112   4 -1.028135E+05 -9.946087E+04 -4.045488E+04 -5.875645E+03 -1.809458E-12  2.336785E-12
       112   5 -1.024825E+05 -9.627626E+04 -3.975176E+04 -4.771413E+03 -4.135903E-14  0.000000E+00
       112   6 -1.028196E+05 -9.305000E+04 -3.917392E+04 -3.507247E+03 -2.013022E-12  2.176519E-12
       112   7 -9.050926E+04 -9.363162E+04 -3.682818E+04 -9.647306E+03 -2.729696E-12  2.398824E-12
       112   8 -9.124153E+04 -9.725510E+04 -3.769932E+04 -8.679577E+03 -2.533241E-12  2.150670E-12
       112   9 -9.255498E+04 -1.024702E+05 -3.900504E+04 -7.297912E+03 -2.949416E-12  2.595279E-12
       112  10 -1.066491E+05 -9.514039E+04 -4.035791E+04  3.417940E+03  3.101927E-14  0.000000E+00
       112  11 -1.058525E+05 -9.588791E+04 -4.034808E+04  1.868980E+03 -2.584939E-14  2.067952E-14
       112  12 -1.062433E+05 -1.007171E+05 -4.139209E+04 -1.698013E+03 -1.292470E-15  1.292470E-15
       112  13 -1.028135E+05 -9.946087E+04 -4.045488E+04 -5.875645E+03 -2.067952E-14 -2.067952E-14
       112  14 -1.024825E+05 -9.627626E+04 -3.975176E+04 -4.771413E+03  0.000000E+00  6.203855E-14
       112  15 -1.028196E+05 -9.305000E+04 -3.917392E+04 -3.507247E+03 -3.360421E-14  3.101927E-14
       112  16 -9.050926E+04 -9.363162E+04 -3.682818E+04 -9.647306E+03 -1.033976E-14  0.000000E+00
       112  17 -9.124153E+04 -9.725510E+04 -3.769932E+04 -8.679577E+03  5.169879E-15 -5.169879E-15
       112  18 -9.255498E+04 -1.024702E+05 -3.900504E+04 -7.297912E+03 -3.877409E-15 -9.047288E-15
       112  19 -1.066491E+05 -9.514039E+04 -4.035791E+04  3.417940E+03  2.025300E-12 -2.259237E-12
       112  20 -1.058525E+05 -9.588791E+04 -4.034808E+04  1.868980E+03  1.804288E-12 -2.207538E-12
       112  21 -1.062433E+05 -1.007171E+05 -4.139209E+04 -1.698013E+03  1.867457E-12 -2.324507E-12
       112  22 -1.028135E+05 -9.946087E+04 -4.045488E+04 -5.875645E+03  1.726740E-12 -2.254067E-12
       112  23 -1.024825E+05 -9.627626E+04 -3.975176E+04 -4.771413E+03  2.067952E-13  0.000000E+00
       112  24 -1.028196E+05 -9.305000E+04 -3.917392E+04 -3.507247E+03  2.013022E-12 -2.176519E-12
       112  25 -9.050926E+04 -9.363162E+04 -3.682818E+04 -9.647306E+03  2.688337E-12 -2.440183E-12
       112  26 -9.124153E+04 -9.725510E+04 -3.769932E+04 -8.679577E+03  2.450523E-12 -2.150670E-12
       112  27 -9.255498E+04 -1.024702E+05 -3.900504E+04 -7.297912E+03  2.908057E-12 -2.512561E-12
