    1C
    1UUSER                                                              
    1UDATE              08.june.2018                                    
    1UTIME              10:58:42                                        
    1UHOST                                                              
    1UPGM               CalculiX                                        
    1UVERSION           Version 2.13                             
    1UCOMPILETIME       So 8. Okt 22:10:07 CEST 2017                    
    1UDIR                                                               
    1UDBN                                                               
    1UMAT    1CONCRETE                                                  
    2C                           397                                     1
 -1         1 0.00000E+00 0.00000E+00 0.00000E+00
 -1         2 2.43840E+00 0.00000E+00 0.00000E+00
 -1         3 6.70560E+00 3.65760E+00 0.00000E+00
 -1         4 3.32232E+01 4.12047E+00 0.00000E+00
 -1         5 3.50520E+01 4.15239E+00 0.00000E+00
 -1         6 3.50520E+01 8.41959E+00 0.00000E+00
 -1         8 6.70560E+00 2.22504E+01 0.00000E+00
 -1        10 4.26720E+00 2.98704E+01 0.00000E+00
 -1        11 6.09600E-01 3.35280E+01 0.00000E+00
 -1        12 0.00000E+00 3.35280E+01 0.00000E+00
 -1        13 6.09600E-01 0.00000E+00 0.00000E+00
 -1        14 1.21920E+00 0.00000E+00 0.00000E+00
 -1        15 1.82880E+00 0.00000E+00 0.00000E+00
 -1        16 3.04800E-01 0.00000E+00 0.00000E+00
 -1        17 9.14400E-01 0.00000E+00 0.00000E+00
 -1        18 1.52400E+00 0.00000E+00 0.00000E+00
 -1        19 2.13360E+00 0.00000E+00 0.00000E+00
 -1        20 3.50520E+00 9.14400E-01 0.00000E+00
 -1        21 4.57200E+00 1.82880E+00 0.00000E+00
 -1        22 5.63880E+00 2.74320E+00 0.00000E+00
 -1        23 2.97180E+00 4.57200E-01 0.00000E+00
 -1        24 4.03860E+00 1.37160E+00 0.00000E+00
 -1        25 5.10540E+00 2.28600E+00 0.00000E+00
 -1        26 6.17220E+00 3.20040E+00 0.00000E+00
 -1        27 1.00203E+01 3.71546E+00 0.00000E+00
 -1        28 1.33350E+01 3.77332E+00 0.00000E+00
 -1        29 1.66497E+01 3.83118E+00 0.00000E+00
 -1        30 1.99644E+01 3.88903E+00 0.00000E+00
 -1        31 2.32791E+01 3.94689E+00 0.00000E+00
 -1        32 2.65938E+01 4.00475E+00 0.00000E+00
 -1        33 2.99085E+01 4.06261E+00 0.00000E+00
 -1        34 8.36295E+00 3.68653E+00 0.00000E+00
 -1        35 1.16777E+01 3.74439E+00 0.00000E+00
 -1        36 1.49923E+01 3.80225E+00 0.00000E+00
 -1        37 1.83071E+01 3.86010E+00 0.00000E+00
 -1        38 2.16217E+01 3.91796E+00 0.00000E+00
 -1        39 2.49364E+01 3.97582E+00 0.00000E+00
 -1        40 2.82512E+01 4.03368E+00 0.00000E+00
 -1        41 3.15658E+01 4.09154E+00 0.00000E+00
 -1        42 3.36804E+01 4.12845E+00 0.00000E+00
 -1        43 3.41376E+01 4.13643E+00 0.00000E+00
 -1        44 3.45948E+01 4.14441E+00 0.00000E+00
 -1        45 3.34518E+01 4.12446E+00 0.00000E+00
 -1        46 3.39090E+01 4.13244E+00 0.00000E+00
 -1        47 3.43662E+01 4.14042E+00 0.00000E+00
 -1        48 3.48234E+01 4.14840E+00 0.00000E+00
 -1        49 3.50520E+01 5.21919E+00 0.00000E+00
 -1        50 3.50520E+01 6.28599E+00 0.00000E+00
 -1        51 3.50520E+01 7.35279E+00 0.00000E+00
 -1        52 3.50520E+01 4.68579E+00 0.00000E+00
 -1        53 3.50520E+01 5.75259E+00 0.00000E+00
 -1        54 3.50520E+01 6.81939E+00 0.00000E+00
 -1        55 3.50520E+01 7.88619E+00 0.00000E+00
 -1        56 3.24397E+01 8.93301E+00 0.00000E+00
 -1        57 2.98548E+01 9.57049E+00 0.00000E+00
 -1        58 2.73033E+01 1.03306E+01 0.00000E+00
 -1        59 2.47909E+01 1.12115E+01 0.00000E+00
 -1        60 2.23235E+01 1.22113E+01 0.00000E+00
 -1        61 1.99065E+01 1.33277E+01 0.00000E+00
 -1        62 1.75456E+01 1.45582E+01 0.00000E+00
 -1        63 1.52460E+01 1.58999E+01 0.00000E+00
 -1        64 1.30132E+01 1.73498E+01 0.00000E+00
 -1        65 1.08520E+01 1.89045E+01 0.00000E+00
 -1        66 8.76743E+00 2.05606E+01 0.00000E+00
 -1        67 3.37428E+01 8.66071E+00 0.00000E+00
 -1        68 3.11434E+01 9.23633E+00 0.00000E+00
 -1        69 2.85745E+01 9.93531E+00 0.00000E+00
 -1        70 2.60418E+01 1.07561E+01 0.00000E+00
 -1        71 2.35512E+01 1.16967E+01 0.00000E+00
 -1        72 2.11083E+01 1.27551E+01 0.00000E+00
 -1        73 1.87187E+01 1.39289E+01 0.00000E+00
 -1        74 1.63878E+01 1.52153E+01 0.00000E+00
 -1        75 1.41209E+01 1.66115E+01 0.00000E+00
 -1        76 1.19233E+01 1.81142E+01 0.00000E+00
 -1        77 9.79982E+00 1.97201E+01 0.00000E+00
 -1        78 7.75539E+00 2.14255E+01 0.00000E+00
 -1        79 5.38402E+00 2.38623E+01 0.00000E+00
 -1        80 4.49953E+00 2.57497E+01 0.00000E+00
 -1        81 4.10651E+00 2.77967E+01 0.00000E+00
 -1        82 5.99467E+00 2.30152E+01 0.00000E+00
 -1        83 4.88306E+00 2.47785E+01 0.00000E+00
 -1        84 4.23934E+00 2.67610E+01 0.00000E+00
 -1        85 4.10307E+00 2.88409E+01 0.00000E+00
 -1        86 3.35280E+00 3.07848E+01 0.00000E+00
 -1        87 2.43840E+00 3.16992E+01 0.00000E+00
 -1        88 1.52400E+00 3.26136E+01 0.00000E+00
 -1        89 3.81000E+00 3.03276E+01 0.00000E+00
 -1        90 2.89560E+00 3.12420E+01 0.00000E+00
 -1        91 1.98120E+00 3.21564E+01 0.00000E+00
 -1        92 1.06680E+00 3.30708E+01 0.00000E+00
 -1        93 4.57200E-01 3.35280E+01 0.00000E+00
 -1        94 3.04800E-01 3.35280E+01 0.00000E+00
 -1        95 1.52400E-01 3.35280E+01 0.00000E+00
 -1        96 5.33400E-01 3.35280E+01 0.00000E+00
 -1        97 3.81000E-01 3.35280E+01 0.00000E+00
 -1        98 2.28600E-01 3.35280E+01 0.00000E+00
 -1        99 7.62000E-02 3.35280E+01 0.00000E+00
 -1       100 0.00000E+00 3.07340E+01 0.00000E+00
 -1       101 0.00000E+00 2.79400E+01 0.00000E+00
 -1       102 0.00000E+00 2.51460E+01 0.00000E+00
 -1       103 0.00000E+00 2.23520E+01 0.00000E+00
 -1       104 0.00000E+00 1.95580E+01 0.00000E+00
 -1       105 0.00000E+00 1.67640E+01 0.00000E+00
 -1       106 0.00000E+00 1.39700E+01 0.00000E+00
 -1       107 0.00000E+00 1.11760E+01 0.00000E+00
 -1       108 0.00000E+00 8.38200E+00 0.00000E+00
 -1       109 0.00000E+00 5.58800E+00 0.00000E+00
 -1       110 0.00000E+00 2.79400E+00 0.00000E+00
 -1       111 0.00000E+00 3.21310E+01 0.00000E+00
 -1       112 0.00000E+00 2.93370E+01 0.00000E+00
 -1       113 0.00000E+00 2.65430E+01 0.00000E+00
 -1       114 0.00000E+00 2.37490E+01 0.00000E+00
 -1       115 0.00000E+00 2.09550E+01 0.00000E+00
 -1       116 0.00000E+00 1.81610E+01 0.00000E+00
 -1       117 0.00000E+00 1.53670E+01 0.00000E+00
 -1       118 0.00000E+00 1.25730E+01 0.00000E+00
 -1       119 0.00000E+00 9.77900E+00 0.00000E+00
 -1       120 0.00000E+00 6.98500E+00 0.00000E+00
 -1       121 0.00000E+00 4.19100E+00 0.00000E+00
 -1       122 0.00000E+00 1.39700E+00 0.00000E+00
 -1       123 8.71939E+00 1.38229E+01 0.00000E+00
 -1       124 8.92323E+00 8.34716E+00 0.00000E+00
 -1       125 2.85098E+00 2.79111E+00 0.00000E+00
 -1       126 3.15717E+01 6.44549E+00 0.00000E+00
 -1       127 4.66074E+00 4.54607E+00 0.00000E+00
 -1       128 4.76978E+00 1.82218E+01 0.00000E+00
 -1       129 3.30373E+01 4.88107E+00 0.00000E+00
 -1       130 1.47876E+01 9.24034E+00 0.00000E+00
 -1       131 4.21096E+00 1.15095E+01 0.00000E+00
 -1       132 4.53819E+00 7.55625E+00 0.00000E+00
 -1       133 1.30474E+01 1.31341E+01 0.00000E+00
 -1       134 2.99479E+00 1.54940E+01 0.00000E+00
 -1       135 2.56924E+01 7.60814E+00 0.00000E+00
 -1       136 2.23777E+01 7.55028E+00 0.00000E+00
 -1       137 1.73760E+01 6.56469E+00 0.00000E+00
 -1       138 1.40613E+01 6.50683E+00 0.00000E+00
 -1       139 3.40447E+01 4.51673E+00 0.00000E+00
 -1       140 3.35875E+01 4.50875E+00 0.00000E+00
 -1       141 3.31303E+01 4.50077E+00 0.00000E+00
 -1       142 1.21920E+00 3.26136E+01 0.00000E+00
 -1       143 1.21920E+00 2.98196E+01 0.00000E+00
 -1       144 2.13360E+00 2.89052E+01 0.00000E+00
 -1       145 1.37160E+00 3.26136E+01 0.00000E+00
 -1       146 1.18554E+01 8.79375E+00 0.00000E+00
 -1       147 7.81442E+00 6.00238E+00 0.00000E+00
 -1       148 1.09379E+01 6.25460E+00 0.00000E+00
 -1       149 3.07133E+01 8.00799E+00 0.00000E+00
 -1       150 2.90828E+01 5.22512E+00 0.00000E+00
 -1       151 2.81930E+01 7.77785E+00 0.00000E+00
 -1       152 2.24977E+00 2.40508E+01 0.00000E+00
 -1       153 2.05325E+00 2.64713E+01 0.00000E+00
 -1       154 2.26909E+00 6.57212E+00 0.00000E+00
 -1       155 1.42549E+00 4.18955E+00 0.00000E+00
 -1       156 3.75586E+00 3.66859E+00 0.00000E+00
 -1       157 4.59947E+00 6.05116E+00 0.00000E+00
 -1       158 3.01248E+00 5.12036E+00 0.00000E+00
 -1       159 6.73071E+00 7.95170E+00 0.00000E+00
 -1       160 8.82131E+00 1.10850E+01 0.00000E+00
 -1       161 6.46517E+00 1.26662E+01 0.00000E+00
 -1       162 4.37457E+00 9.53287E+00 0.00000E+00
 -1       163 6.59794E+00 1.03089E+01 0.00000E+00
 -1       164 1.73471E+01 1.12840E+01 0.00000E+00
 -1       165 1.98497E+01 9.38801E+00 0.00000E+00
 -1       166 2.10548E+00 1.13427E+01 0.00000E+00
 -1       167 2.18729E+00 8.95743E+00 0.00000E+00
 -1       168 3.60287E+00 1.35018E+01 0.00000E+00
 -1       169 1.49739E+00 1.61290E+01 0.00000E+00
 -1       170 1.80144E+00 1.37359E+01 0.00000E+00
 -1       171 5.73769E+00 2.02361E+01 0.00000E+00
 -1       172 6.74458E+00 1.60223E+01 0.00000E+00
 -1       173 9.78568E+00 1.63637E+01 0.00000E+00
 -1       174 7.75601E+00 1.82915E+01 0.00000E+00
 -1       175 3.88228E+00 1.68579E+01 0.00000E+00
 -1       176 2.38489E+00 2.02869E+01 0.00000E+00
 -1       177 1.94114E+00 1.82080E+01 0.00000E+00
 -1       178 1.08834E+01 1.34785E+01 0.00000E+00
 -1       179 1.41467E+01 1.45170E+01 0.00000E+00
 -1       180 1.19483E+01 1.54141E+01 0.00000E+00
 -1       181 1.39175E+01 1.11872E+01 0.00000E+00
 -1       182 1.57315E+01 1.28727E+01 0.00000E+00
 -1       183 5.68317E+00 4.10183E+00 0.00000E+00
 -1       184 6.20694E+00 6.02677E+00 0.00000E+00
 -1       185 5.17373E+00 1.47621E+01 0.00000E+00
 -1       186 3.71149E+00 2.30995E+00 0.00000E+00
 -1       187 4.69733E+00 3.20589E+00 0.00000E+00
 -1       188 1.13694E+01 1.11361E+01 0.00000E+00
 -1       189 2.03509E+00 1.39555E+00 0.00000E+00
 -1       190 2.77014E+00 1.15498E+00 0.00000E+00
 -1       191 3.23045E+01 5.66328E+00 0.00000E+00
 -1       192 3.11065E+01 4.86295E+00 0.00000E+00
 -1       193 3.33119E+01 6.36574E+00 0.00000E+00
 -1       194 3.36783E+01 5.44124E+00 0.00000E+00
 -1       195 3.28758E+01 7.64938E+00 0.00000E+00
 -1       196 3.88445E+00 2.20746E+01 0.00000E+00
 -1       197 1.01754E+00 2.09478E+00 0.00000E+00
 -1       198 2.37830E+01 6.36844E+00 0.00000E+00
 -1       199 1.60290E+01 5.63423E+00 0.00000E+00
 -1       200 3.40756E+01 4.38996E+00 0.00000E+00
 -1       201 3.34660E+01 4.37932E+00 0.00000E+00
 -1       202 8.12800E-01 3.10557E+01 0.00000E+00
 -1       203 2.23520E+00 2.98365E+01 0.00000E+00
 -1       204 9.14400E-01 3.29184E+01 0.00000E+00
 -1       205 1.11760E+00 3.29184E+01 0.00000E+00
 -1       206 1.04791E+01 4.98503E+00 0.00000E+00
 -1       207 9.37614E+00 6.12849E+00 0.00000E+00
 -1       208 7.26001E+00 4.82999E+00 0.00000E+00
 -1       209 1.36982E+01 5.14007E+00 0.00000E+00
 -1       210 1.24996E+01 6.38072E+00 0.00000E+00
 -1       211 1.44245E+01 7.87358E+00 0.00000E+00
 -1       212 1.33215E+01 9.01705E+00 0.00000E+00
 -1       213 1.13967E+01 7.52418E+00 0.00000E+00
 -1       214 1.03893E+01 8.57046E+00 0.00000E+00
 -1       215 8.36883E+00 7.17477E+00 0.00000E+00
 -1       216 3.11425E+01 7.22674E+00 0.00000E+00
 -1       217 2.94531E+01 7.89292E+00 0.00000E+00
 -1       218 2.86379E+01 6.50148E+00 0.00000E+00
 -1       219 3.03272E+01 5.83531E+00 0.00000E+00
 -1       220 3.02840E+01 8.78924E+00 0.00000E+00
 -1       221 2.77481E+01 9.05421E+00 0.00000E+00
 -1       222 2.52416E+01 9.40983E+00 0.00000E+00
 -1       223 2.69427E+01 7.69299E+00 0.00000E+00
 -1       224 2.61431E+01 5.80644E+00 0.00000E+00
 -1       225 2.78383E+01 4.61493E+00 0.00000E+00
 -1       226 3.20040E+00 2.93878E+01 0.00000E+00
 -1       227 2.09343E+00 2.76883E+01 0.00000E+00
 -1       228 3.07988E+00 2.71340E+01 0.00000E+00
 -1       229 1.06680E+00 2.84226E+01 0.00000E+00
 -1       230 1.02663E+00 2.58087E+01 0.00000E+00
 -1       231 1.12488E+00 2.32014E+01 0.00000E+00
 -1       232 2.15151E+00 2.52611E+01 0.00000E+00
 -1       233 3.37465E+00 2.49003E+01 0.00000E+00
 -1       234 3.40364E+00 7.06419E+00 0.00000E+00
 -1       235 2.64079E+00 5.84624E+00 0.00000E+00
 -1       236 3.80597E+00 5.58576E+00 0.00000E+00
 -1       237 4.56883E+00 6.80370E+00 0.00000E+00
 -1       238 1.13455E+00 6.08006E+00 0.00000E+00
 -1       239 7.12744E-01 4.88878E+00 0.00000E+00
 -1       240 2.21898E+00 4.65495E+00 0.00000E+00
 -1       241 2.13823E+00 3.49033E+00 0.00000E+00
 -1       242 3.30342E+00 3.22985E+00 0.00000E+00
 -1       243 3.38417E+00 4.39447E+00 0.00000E+00
 -1       244 4.20830E+00 4.10733E+00 0.00000E+00
 -1       245 4.63011E+00 5.29861E+00 0.00000E+00
 -1       246 5.63445E+00 7.75397E+00 0.00000E+00
 -1       247 6.66433E+00 9.13032E+00 0.00000E+00
 -1       248 5.48626E+00 9.92091E+00 0.00000E+00
 -1       249 4.45638E+00 8.54456E+00 0.00000E+00
 -1       250 7.82697E+00 8.14943E+00 0.00000E+00
 -1       251 8.87227E+00 9.71609E+00 0.00000E+00
 -1       252 7.70963E+00 1.06970E+01 0.00000E+00
 -1       253 8.77035E+00 1.24539E+01 0.00000E+00
 -1       254 7.59228E+00 1.32445E+01 0.00000E+00
 -1       255 6.53156E+00 1.14876E+01 0.00000E+00
 -1       256 5.33807E+00 1.20878E+01 0.00000E+00
 -1       257 4.29277E+00 1.05212E+01 0.00000E+00
 -1       258 2.11710E+01 5.71966E+00 0.00000E+00
 -1       259 2.11137E+01 8.46915E+00 0.00000E+00
 -1       260 1.86129E+01 7.97635E+00 0.00000E+00
 -1       261 1.86702E+01 5.22686E+00 0.00000E+00
 -1       262 2.35843E+01 9.38090E+00 0.00000E+00
 -1       263 2.10866E+01 1.07997E+01 0.00000E+00
 -1       264 1.86268E+01 1.23059E+01 0.00000E+00
 -1       265 1.85984E+01 1.03360E+01 0.00000E+00
 -1       266 1.60674E+01 1.02622E+01 0.00000E+00
 -1       267 1.60818E+01 7.90251E+00 0.00000E+00
 -1       268 3.28093E+00 9.24515E+00 0.00000E+00
 -1       269 2.22819E+00 7.76478E+00 0.00000E+00
 -1       270 3.15822E+00 1.14261E+01 0.00000E+00
 -1       271 2.14638E+00 1.01501E+01 0.00000E+00
 -1       272 1.05274E+00 1.12594E+01 0.00000E+00
 -1       273 1.09364E+00 8.66972E+00 0.00000E+00
 -1       274 3.90692E+00 1.25056E+01 0.00000E+00
 -1       275 2.70216E+00 1.36188E+01 0.00000E+00
 -1       276 1.95346E+00 1.25393E+01 0.00000E+00
 -1       277 3.29883E+00 1.44979E+01 0.00000E+00
 -1       278 2.24609E+00 1.58115E+01 0.00000E+00
 -1       279 1.64942E+00 1.49324E+01 0.00000E+00
 -1       280 7.48697E-01 1.64465E+01 0.00000E+00
 -1       281 9.00718E-01 1.38529E+01 0.00000E+00
 -1       282 6.22164E+00 2.12433E+01 0.00000E+00
 -1       283 6.74685E+00 1.92638E+01 0.00000E+00
 -1       284 8.26172E+00 1.94260E+01 0.00000E+00
 -1       285 5.25373E+00 1.92290E+01 0.00000E+00
 -1       286 5.75718E+00 1.71221E+01 0.00000E+00
 -1       287 7.25029E+00 1.71569E+01 0.00000E+00
 -1       288 7.73199E+00 1.49226E+01 0.00000E+00
 -1       289 9.25253E+00 1.50933E+01 0.00000E+00
 -1       290 8.77084E+00 1.73276E+01 0.00000E+00
 -1       291 1.03188E+01 1.76341E+01 0.00000E+00
 -1       292 9.70571E-01 1.88830E+01 0.00000E+00
 -1       293 2.16301E+00 1.92474E+01 0.00000E+00
 -1       294 1.19244E+00 2.13195E+01 0.00000E+00
 -1       295 1.71927E+00 1.71685E+01 0.00000E+00
 -1       296 3.43853E+00 1.61760E+01 0.00000E+00
 -1       297 2.91171E+00 1.75329E+01 0.00000E+00
 -1       298 4.32603E+00 1.75399E+01 0.00000E+00
 -1       299 3.57733E+00 1.92544E+01 0.00000E+00
 -1       300 9.80138E+00 1.36507E+01 0.00000E+00
 -1       301 1.14158E+01 1.44463E+01 0.00000E+00
 -1       302 1.08670E+01 1.58889E+01 0.00000E+00
 -1       303 1.19654E+01 1.33063E+01 0.00000E+00
 -1       304 1.35970E+01 1.38255E+01 0.00000E+00
 -1       305 1.30475E+01 1.49656E+01 0.00000E+00
 -1       306 1.46964E+01 1.52084E+01 0.00000E+00
 -1       307 1.24807E+01 1.63819E+01 0.00000E+00
 -1       308 1.34824E+01 1.21606E+01 0.00000E+00
 -1       309 1.48245E+01 1.20300E+01 0.00000E+00
 -1       310 1.49391E+01 1.36948E+01 0.00000E+00
 -1       311 1.43526E+01 1.02138E+01 0.00000E+00
 -1       312 1.65393E+01 1.20784E+01 0.00000E+00
 -1       313 1.66386E+01 1.37154E+01 0.00000E+00
 -1       314 6.46883E+00 6.98924E+00 0.00000E+00
 -1       315 7.01068E+00 6.01458E+00 0.00000E+00
 -1       316 5.40320E+00 6.03896E+00 0.00000E+00
 -1       317 5.17196E+00 4.32395E+00 0.00000E+00
 -1       318 5.94506E+00 5.06430E+00 0.00000E+00
 -1       319 6.19439E+00 3.87972E+00 0.00000E+00
 -1       320 5.81945E+00 1.37141E+01 0.00000E+00
 -1       321 4.38830E+00 1.41319E+01 0.00000E+00
 -1       322 5.95916E+00 1.53922E+01 0.00000E+00
 -1       323 4.52801E+00 1.58100E+01 0.00000E+00
 -1       324 5.19025E+00 3.65386E+00 0.00000E+00
 -1       325 5.16807E+00 2.97455E+00 0.00000E+00
 -1       326 4.22659E+00 3.43724E+00 0.00000E+00
 -1       327 3.28123E+00 2.55053E+00 0.00000E+00
 -1       328 4.20441E+00 2.75792E+00 0.00000E+00
 -1       329 4.14174E+00 2.06938E+00 0.00000E+00
 -1       330 1.26435E+01 1.11617E+01 0.00000E+00
 -1       331 1.16124E+01 9.96493E+00 0.00000E+00
 -1       332 1.11264E+01 1.23073E+01 0.00000E+00
 -1       333 1.00954E+01 1.11106E+01 0.00000E+00
 -1       334 3.24082E+00 1.73247E+00 0.00000E+00
 -1       335 3.13767E+00 1.03469E+00 0.00000E+00
 -1       336 2.44303E+00 2.09333E+00 0.00000E+00
 -1       337 2.40262E+00 1.27526E+00 0.00000E+00
 -1       338 1.62714E+00 6.97777E-01 0.00000E+00
 -1       339 2.29947E+00 5.77488E-01 0.00000E+00
 -1       340 3.26709E+01 5.27218E+00 0.00000E+00
 -1       341 3.17055E+01 5.26311E+00 0.00000E+00
 -1       342 3.21184E+01 4.68186E+00 0.00000E+00
 -1       343 3.30838E+01 4.69092E+00 0.00000E+00
 -1       344 3.19381E+01 6.05439E+00 0.00000E+00
 -1       345 3.00946E+01 5.04403E+00 0.00000E+00
 -1       346 3.05075E+01 4.46278E+00 0.00000E+00
 -1       347 3.31767E+01 4.31062E+00 0.00000E+00
 -1       348 3.29914E+01 5.55226E+00 0.00000E+00
 -1       349 3.34951E+01 5.90349E+00 0.00000E+00
 -1       350 3.24418E+01 6.40562E+00 0.00000E+00
 -1       351 3.35410E+01 4.69890E+00 0.00000E+00
 -1       352 3.38615E+01 4.97898E+00 0.00000E+00
 -1       353 3.45483E+01 4.33456E+00 0.00000E+00
 -1       354 3.43651E+01 5.33021E+00 0.00000E+00
 -1       355 3.41819E+01 6.32586E+00 0.00000E+00
 -1       356 3.39639E+01 7.50108E+00 0.00000E+00
 -1       357 3.30938E+01 7.00756E+00 0.00000E+00
 -1       358 3.26577E+01 8.29120E+00 0.00000E+00
 -1       359 3.17945E+01 7.82868E+00 0.00000E+00
 -1       360 4.81107E+00 2.11553E+01 0.00000E+00
 -1       361 3.13467E+00 2.11807E+01 0.00000E+00
 -1       362 4.63423E+00 2.29684E+01 0.00000E+00
 -1       363 3.06711E+00 2.30627E+01 0.00000E+00
 -1       364 5.08772E-01 2.44439E+00 0.00000E+00
 -1       365 1.22152E+00 3.14216E+00 0.00000E+00
 -1       366 8.13572E-01 1.04739E+00 0.00000E+00
 -1       367 1.52632E+00 1.74516E+00 0.00000E+00
 -1       368 2.35311E+01 5.15766E+00 0.00000E+00
 -1       369 2.30803E+01 6.95936E+00 0.00000E+00
 -1       370 2.47377E+01 6.98829E+00 0.00000E+00
 -1       371 1.63394E+01 4.73270E+00 0.00000E+00
 -1       372 1.50452E+01 6.07053E+00 0.00000E+00
 -1       373 1.67025E+01 6.09946E+00 0.00000E+00
 -1       374 3.43352E+01 4.26719E+00 0.00000E+00
 -1       375 3.38316E+01 4.44936E+00 0.00000E+00
 -1       376 3.38625E+01 4.32259E+00 0.00000E+00
 -1       377 3.40602E+01 4.45335E+00 0.00000E+00
 -1       378 3.33124E+01 4.69491E+00 0.00000E+00
 -1       379 3.32982E+01 4.44005E+00 0.00000E+00
 -1       380 3.35268E+01 4.44404E+00 0.00000E+00
 -1       381 3.35732E+01 4.25388E+00 0.00000E+00
 -1       382 1.82880E+00 3.21564E+01 0.00000E+00
 -1       383 1.01600E+00 3.18347E+01 0.00000E+00
 -1       384 1.01600E+00 3.04377E+01 0.00000E+00
 -1       385 1.82880E+00 3.07594E+01 0.00000E+00
 -1       386 6.09600E-01 3.30708E+01 0.00000E+00
 -1       387 4.06400E-01 3.08949E+01 0.00000E+00
 -1       388 6.09600E-01 2.88798E+01 0.00000E+00
 -1       389 2.18440E+00 2.93709E+01 0.00000E+00
 -1       390 1.72720E+00 2.98281E+01 0.00000E+00
 -1       391 2.79400E+00 3.03107E+01 0.00000E+00
 -1       392 5.33400E-01 3.32232E+01 0.00000E+00
 -1       393 1.14300E+00 3.27660E+01 0.00000E+00
 -1       394 8.38200E-01 3.30708E+01 0.00000E+00
 -1       395 1.06680E+00 3.27660E+01 0.00000E+00
 -1       396 1.90500E+00 3.21564E+01 0.00000E+00
 -1       397 1.32080E+00 3.27660E+01 0.00000E+00
 -1       398 1.24460E+00 3.27660E+01 0.00000E+00
 -1       399 7.87400E-01 3.32232E+01 0.00000E+00
 -3
    3C                           112                                     1
 -1         1   10    0    1
 -2         3        27       148       147        34       206       207       208
 -1         2   10    0    1
 -2        27        28       138       148        35       209       210       206
 -1         3   10    0    1
 -2       148       138       130       146       210       211       212       213
 -1         4   10    0    1
 -2       147       148       146       124       207       213       214       215
 -1         5   10    0    1
 -2       126       149       151       150       216       217       218       219
 -1         6   10    0    1
 -2       149        57        58       151       220        69       221       217
 -1         7   10    0    1
 -2       151        58        59       135       221        70       222       223
 -1         8   10    0    1
 -2       150       151       135        32       218       223       224       225
 -1         9   10    0    1
 -2        10       144       153        81       226       227       228        85
 -1        10   10    0    1
 -2       144       101       102       153       229       113       230       227
 -1        11   10    0    1
 -2       153       102       103       152       230       114       231       232
 -1        12   10    0    1
 -2        81       153       152        80       228       232       233        84
 -1        13   10    0    1
 -2       132       154       158       157       234       235       236       237
 -1        14   10    0    1
 -2       154       109       155       158       238       239       240       235
 -1        15   10    0    1
 -2       158       155       125       156       240       241       242       243
 -1        16   10    0    1
 -2       157       158       156       127       236       243       244       245
 -1        17   10    0    1
 -2       132       159       163       162       246       247       248       249
 -1        18   10    0    1
 -2       159       124       160       163       250       251       252       247
 -1        19   10    0    1
 -2       163       160       123       161       252       253       254       255
 -1        20   10    0    1
 -2       162       163       161       131       248       255       256       257
 -1        21   10    0    1
 -2        30       136       165       137       258       259       260       261
 -1        22   10    0    1
 -2       136        59        60       165       262        71       263       259
 -1        23   10    0    1
 -2       165        60        61       164       263        72       264       265
 -1        24   10    0    1
 -2       137       165       164       130       260       265       266       267
 -1        25   10    0    1
 -2       132       162       167       154       249       268       269       234
 -1        26   10    0    1
 -2       162       131       166       167       257       270       271       268
 -1        27   10    0    1
 -2       167       166       107       108       271       272       119       273
 -1        28   10    0    1
 -2       154       167       108       109       269       273       120       238
 -1        29   10    0    1
 -2       131       168       170       166       274       275       276       270
 -1        30   10    0    1
 -2       168       134       169       170       277       278       279       275
 -1        31   10    0    1
 -2       170       169       105       106       279       280       117       281
 -1        32   10    0    1
 -2       166       170       106       107       276       281       118       272
 -1        33   10    0    1
 -2         8       171       174        66       282       283       284        78
 -1        34   10    0    1
 -2       171       128       172       174       285       286       287       283
 -1        35   10    0    1
 -2       174       172       123       173       287       288       289       290
 -1        36   10    0    1
 -2        66       174       173        65       284       290       291        77
 -1        37   10    0    1
 -2       103       104       177       176       115       292       293       294
 -1        38   10    0    1
 -2       104       105       169       177       116       280       295       292
 -1        39   10    0    1
 -2       177       169       134       175       295       278       296       297
 -1        40   10    0    1
 -2       176       177       175       128       293       297       298       299
 -1        41   10    0    1
 -2       123       178       180       173       300       301       302       289
 -1        42   10    0    1
 -2       178       133       179       180       303       304       305       301
 -1        43   10    0    1
 -2       180       179        63        64       305       306        75       307
 -1        44   10    0    1
 -2       173       180        64        65       302       307        76       291
 -1        45   10    0    1
 -2       133       181       182       179       308       309       310       304
 -1        46   10    0    1
 -2       181       130       164       182       311       266       312       309
 -1        47   10    0    1
 -2       182       164        61        62       312       264        73       313
 -1        48   10    0    1
 -2       179       182        62        63       310       313        74       306
 -1        49   10    0    1
 -2       124       159       184       147       250       314       315       215
 -1        50   10    0    1
 -2       159       132       157       184       246       237       316       314
 -1        51   10    0    1
 -2       184       157       127       183       316       245       317       318
 -1        52   10    0    1
 -2       147       184       183         3       315       318       319       208
 -1        53   10    0    1
 -2       131       161       185       168       256       320       321       274
 -1        54   10    0    1
 -2       161       123       172       185       254       288       322       320
 -1        55   10    0    1
 -2       185       172       128       175       322       286       298       323
 -1        56   10    0    1
 -2       168       185       175       134       321       323       296       277
 -1        57   10    0    1
 -2         3       183       187        22       319       324       325        26
 -1        58   10    0    1
 -2       183       127       156       187       317       244       326       324
 -1        59   10    0    1
 -2       187       156       125       186       326       242       327       328
 -1        60   10    0    1
 -2        22       187       186        21       325       328       329        25
 -1        61   10    0    1
 -2       130       181       188       146       311       330       331       212
 -1        62   10    0    1
 -2       181       133       178       188       308       303       332       330
 -1        63   10    0    1
 -2       188       178       123       160       332       300       253       333
 -1        64   10    0    1
 -2       146       188       160       124       331       333       251       214
 -1        65   10    0    1
 -2        21       186       190        20       329       334       335        24
 -1        66   10    0    1
 -2       186       125       189       190       327       336       337       334
 -1        67   10    0    1
 -2       190       189        14        15       337       338        18       339
 -1        68   10    0    1
 -2        20       190        15         2       335       339        19        23
 -1        69   10    0    1
 -2       129       191       192       141       340       341       342       343
 -1        70   10    0    1
 -2       191       126       150       192       344       219       345       341
 -1        71   10    0    1
 -2       192       150        32        33       345       225        40       346
 -1        72   10    0    1
 -2       141       192        33         4       342       346        41       347
 -1        73   10    0    1
 -2       126       191       194       193       344       348       349       350
 -1        74   10    0    1
 -2       191       129       139       194       340       351       352       348
 -1        75   10    0    1
 -2       194       139         5        49       352       353        52       354
 -1        76   10    0    1
 -2       193       194        49        50       349       354        53       355
 -1        77   10    0    1
 -2        50        51       195       193        54       356       357       355
 -1        78   10    0    1
 -2        51         6        56       195        55        67       358       356
 -1        79   10    0    1
 -2       195        56        57       149       358        68       220       359
 -1        80   10    0    1
 -2       193       195       149       126       357       359       216       350
 -1        81   10    0    1
 -2       128       171       196       176       285       360       361       299
 -1        82   10    0    1
 -2       171         8        79       196       282        82       362       360
 -1        83   10    0    1
 -2       196        79        80       152       362        83       233       363
 -1        84   10    0    1
 -2       176       196       152       103       361       363       231       294
 -1        85   10    0    1
 -2       109       110       197       155       121       364       365       239
 -1        86   10    0    1
 -2       110         1        13       197       122        16       366       364
 -1        87   10    0    1
 -2       197        13        14       189       366        17       338       367
 -1        88   10    0    1
 -2       155       197       189       125       365       367       336       241
 -1        89   10    0    1
 -2        30        31       198       136        38       368       369       258
 -1        90   10    0    1
 -2        31        32       135       198        39       224       370       368
 -1        91   10    0    1
 -2       136       198       135        59       369       370       222       262
 -1        92   10    0    1
 -2        28        29       199       138        36       371       372       209
 -1        93   10    0    1
 -2        29        30       137       199        37       261       373       371
 -1        94   10    0    1
 -2       138       199       137       130       372       373       267       211
 -1        95   10    0    1
 -2        43        44       200       140        47       374       375       376
 -1        96   10    0    1
 -2        44         5       139       200        48       353       377       374
 -1        97   10    0    1
 -2       140       200       139       129       375       377       351       378
 -1        98   10    0    1
 -2       129       141       201       140       343       379       380       378
 -1        99   10    0    1
 -2       141         4        42       201       347        45       381       379
 -1       100   10    0    1
 -2       140       201        42        43       380       381        46       376
 -1       101   10    0    1
 -2        87       142       202       143       382       383       384       385
 -1       102   10    0    1
 -2       142        12       100       202       386       111       387       383
 -1       103   10    0    1
 -2       143       202       100       101       384       387       112       388
 -1       104   10    0    1
 -2       101       144       203       143       229       389       390       388
 -1       105   10    0    1
 -2       144        10        86       203       226        89       391       389
 -1       106   10    0    1
 -2       143       203        86        87       390       391        90       385
 -1       107   10    0    1
 -2        94        95       204       145        98       392       393       394
 -1       108   10    0    1
 -2        95        12       142       204        99       386       395       392
 -1       109   10    0    1
 -2       145       204       142        87       393       395       382       396
 -1       110   10    0    1
 -2        87        88       205       145        91       397       398       396
 -1       111   10    0    1
 -2        88        11        93       205        92        96       399       397
 -1       112   10    0    1
 -2       145       205        93        94       398       399        97       394
 -3
    1PSTEP                         1           1           1          
  100CL  101 1.000000000         397                     0    1           1
 -4  DISP        4    1
 -5  D1          1    2    1    0
 -5  D2          1    2    2    0
 -5  D3          1    2    3    0
 -5  ALL         1    2    0    0    1ALL
 -1         1 0.00000E+00 0.00000E+00 0.00000E+00
 -1         2 1.24606E-05 8.09081E-05 0.00000E+00
 -1         3-3.55822E-05 1.41466E-04 0.00000E+00
 -1         4-2.04989E-04 7.59762E-04 0.00000E+00
 -1         5-2.11289E-04 7.99229E-04 0.00000E+00
 -1         6-3.03254E-04 7.88674E-04 0.00000E+00
 -1         8-8.83202E-05 6.49437E-05 0.00000E+00
 -1        10-1.77303E-05 3.35612E-06 0.00000E+00
 -1        11-1.10389E-06-2.41243E-06 0.00000E+00
 -1        12 0.00000E+00 0.00000E+00 0.00000E+00
 -1        13 1.37411E-05 2.80721E-05 0.00000E+00
 -1        14 1.79875E-05 4.87359E-05 0.00000E+00
 -1        15 1.67662E-05 6.65246E-05 0.00000E+00
 -1        16 6.93104E-06 1.42125E-05 0.00000E+00
 -1        17 1.66723E-05 3.90795E-05 0.00000E+00
 -1        18 1.78422E-05 5.80912E-05 0.00000E+00
 -1        19 1.49548E-05 7.41987E-05 0.00000E+00
 -1        20-7.48844E-06 9.30039E-05 0.00000E+00
 -1        21-1.95110E-05 1.06789E-04 0.00000E+00
 -1        22-2.96166E-05 1.22030E-04 0.00000E+00
 -1        23 6.39678E-07 8.71801E-05 0.00000E+00
 -1        24-1.38983E-05 9.96195E-05 0.00000E+00
 -1        25-2.48202E-05 1.14265E-04 0.00000E+00
 -1        26-3.34359E-05 1.31046E-04 0.00000E+00
 -1        27-4.61071E-05 2.21620E-04 0.00000E+00
 -1        28-6.77543E-05 2.94276E-04 0.00000E+00
 -1        29-8.96582E-05 3.69029E-04 0.00000E+00
 -1        30-1.12909E-04 4.48238E-04 0.00000E+00
 -1        31-1.37713E-04 5.30046E-04 0.00000E+00
 -1        32-1.63581E-04 6.10772E-04 0.00000E+00
 -1        33-1.87253E-04 6.87100E-04 0.00000E+00
 -1        34-3.79654E-05 1.83899E-04 0.00000E+00
 -1        35-5.66407E-05 2.58145E-04 0.00000E+00
 -1        36-7.86151E-05 3.31125E-04 0.00000E+00
 -1        37-1.01089E-04 4.08130E-04 0.00000E+00
 -1        38-1.25140E-04 4.89039E-04 0.00000E+00
 -1        39-1.50783E-04 5.70790E-04 0.00000E+00
 -1        40-1.75926E-04 6.49579E-04 0.00000E+00
 -1        41-1.97019E-04 7.23526E-04 0.00000E+00
 -1        42-2.06799E-04 7.69419E-04 0.00000E+00
 -1        43-2.08435E-04 7.79309E-04 0.00000E+00
 -1        44-2.09933E-04 7.89252E-04 0.00000E+00
 -1        45-2.05918E-04 7.64532E-04 0.00000E+00
 -1        46-2.07633E-04 7.74355E-04 0.00000E+00
 -1        47-2.09203E-04 7.84274E-04 0.00000E+00
 -1        48-2.10624E-04 7.94240E-04 0.00000E+00
 -1        49-2.34509E-04 7.96645E-04 0.00000E+00
 -1        50-2.57636E-04 7.94027E-04 0.00000E+00
 -1        51-2.80584E-04 7.91333E-04 0.00000E+00
 -1        52-2.22914E-04 7.97931E-04 0.00000E+00
 -1        53-2.46083E-04 7.95342E-04 0.00000E+00
 -1        54-2.69141E-04 7.92683E-04 0.00000E+00
 -1        55-2.91949E-04 7.89991E-04 0.00000E+00
 -1        56-3.05439E-04 7.31718E-04 0.00000E+00
 -1        57-3.06777E-04 6.73069E-04 0.00000E+00
 -1        58-3.07285E-04 6.10999E-04 0.00000E+00
 -1        59-3.05464E-04 5.45044E-04 0.00000E+00
 -1        60-3.00177E-04 4.76366E-04 0.00000E+00
 -1        61-2.89627E-04 4.06012E-04 0.00000E+00
 -1        62-2.72396E-04 3.35860E-04 0.00000E+00
 -1        63-2.47370E-04 2.67951E-04 0.00000E+00
 -1        64-2.14170E-04 2.05080E-04 0.00000E+00
 -1        65-1.74191E-04 1.49768E-04 0.00000E+00
 -1        66-1.31019E-04 1.03446E-04 0.00000E+00
 -1        67-3.04539E-04 7.60285E-04 0.00000E+00
 -1        68-3.06183E-04 7.02729E-04 0.00000E+00
 -1        69-3.07188E-04 6.42546E-04 0.00000E+00
 -1        70-3.06718E-04 5.78478E-04 0.00000E+00
 -1        71-3.03341E-04 5.11013E-04 0.00000E+00
 -1        72-2.95626E-04 4.41275E-04 0.00000E+00
 -1        73-2.81908E-04 3.70779E-04 0.00000E+00
 -1        74-2.60909E-04 3.01467E-04 0.00000E+00
 -1        75-2.31666E-04 2.35678E-04 0.00000E+00
 -1        76-1.94813E-04 1.76274E-04 0.00000E+00
 -1        77-1.52767E-04 1.25485E-04 0.00000E+00
 -1        78-1.09801E-04 8.39101E-05 0.00000E+00
 -1        79-5.39215E-05 3.77714E-05 0.00000E+00
 -1        80-3.13272E-05 2.07248E-05 0.00000E+00
 -1        81-2.08007E-05 1.02939E-05 0.00000E+00
 -1        82-7.04576E-05 4.99667E-05 0.00000E+00
 -1        83-4.07982E-05 2.82404E-05 0.00000E+00
 -1        84-2.45004E-05 1.46915E-05 0.00000E+00
 -1        85-1.86340E-05 6.39284E-06 0.00000E+00
 -1        86-1.42159E-05 1.52499E-06 0.00000E+00
 -1        87-9.96417E-06-7.09297E-07 0.00000E+00
 -1        88-5.45797E-06-2.22210E-06 0.00000E+00
 -1        89-1.60602E-05 2.54589E-06 0.00000E+00
 -1        90-1.21429E-05 3.34146E-07 0.00000E+00
 -1        91-7.66185E-06-1.58192E-06 0.00000E+00
 -1        92-3.32844E-06-2.51215E-06 0.00000E+00
 -1        93-7.43300E-07-1.93043E-06 0.00000E+00
 -1        94-4.37945E-07-1.37649E-06 0.00000E+00
 -1        95-1.56970E-07-7.44252E-07 0.00000E+00
 -1        96-9.23515E-07-2.17700E-06 0.00000E+00
 -1        97-5.91503E-07-1.65028E-06 0.00000E+00
 -1        98-2.90795E-07-1.07200E-06 0.00000E+00
 -1        99-8.32850E-08-3.64692E-07 0.00000E+00
 -1       100 0.00000E+00 0.00000E+00 0.00000E+00
 -1       101 0.00000E+00 0.00000E+00 0.00000E+00
 -1       102 0.00000E+00 0.00000E+00 0.00000E+00
 -1       103 0.00000E+00 0.00000E+00 0.00000E+00
 -1       104 0.00000E+00 0.00000E+00 0.00000E+00
 -1       105 0.00000E+00 0.00000E+00 0.00000E+00
 -1       106 0.00000E+00 0.00000E+00 0.00000E+00
 -1       107 0.00000E+00 0.00000E+00 0.00000E+00
 -1       108 0.00000E+00 0.00000E+00 0.00000E+00
 -1       109 0.00000E+00 0.00000E+00 0.00000E+00
 -1       110 0.00000E+00 0.00000E+00 0.00000E+00
 -1       111 0.00000E+00 0.00000E+00 0.00000E+00
 -1       112 0.00000E+00 0.00000E+00 0.00000E+00
 -1       113 0.00000E+00 0.00000E+00 0.00000E+00
 -1       114 0.00000E+00 0.00000E+00 0.00000E+00
 -1       115 0.00000E+00 0.00000E+00 0.00000E+00
 -1       116 0.00000E+00 0.00000E+00 0.00000E+00
 -1       117 0.00000E+00 0.00000E+00 0.00000E+00
 -1       118 0.00000E+00 0.00000E+00 0.00000E+00
 -1       119 0.00000E+00 0.00000E+00 0.00000E+00
 -1       120 0.00000E+00 0.00000E+00 0.00000E+00
 -1       121 0.00000E+00 0.00000E+00 0.00000E+00
 -1       122 0.00000E+00 0.00000E+00 0.00000E+00
 -1       123-1.48584E-04 1.35999E-04 0.00000E+00
 -1       124-1.12836E-04 1.63679E-04 0.00000E+00
 -1       125-1.89167E-05 6.49671E-05 0.00000E+00
 -1       126-2.48685E-04 7.18236E-04 0.00000E+00
 -1       127-3.95066E-05 9.11962E-05 0.00000E+00
 -1       128-8.75393E-05 6.21985E-05 0.00000E+00
 -1       129-2.20807E-04 7.53847E-04 0.00000E+00
 -1       130-1.77688E-04 2.91084E-04 0.00000E+00
 -1       131-7.34372E-05 6.29284E-05 0.00000E+00
 -1       132-6.04048E-05 7.65092E-05 0.00000E+00
 -1       133-2.01448E-04 2.28224E-04 0.00000E+00
 -1       134-5.83960E-05 4.13191E-05 0.00000E+00
 -1       135-2.38609E-04 5.77167E-04 0.00000E+00
 -1       136-2.12338E-04 4.92289E-04 0.00000E+00
 -1       137-1.53483E-04 3.69893E-04 0.00000E+00
 -1       138-1.27537E-04 2.91342E-04 0.00000E+00
 -1       139-2.16412E-04 7.76425E-04 0.00000E+00
 -1       140-2.14706E-04 7.66582E-04 0.00000E+00
 -1       141-2.12886E-04 7.56782E-04 0.00000E+00
 -1       142-4.57767E-06-1.77546E-06 0.00000E+00
 -1       143-7.39623E-06 3.11905E-06 0.00000E+00
 -1       144-1.25319E-05 6.53758E-06 0.00000E+00
 -1       145-5.04303E-06-1.99010E-06 0.00000E+00
 -1       146-1.45078E-04 2.25842E-04 0.00000E+00
 -1       147-7.56184E-05 1.52300E-04 0.00000E+00
 -1       148-1.00571E-04 2.22313E-04 0.00000E+00
 -1       149-2.78229E-04 6.95684E-04 0.00000E+00
 -1       150-2.08443E-04 6.65408E-04 0.00000E+00
 -1       151-2.59142E-04 6.38023E-04 0.00000E+00
 -1       152-2.76489E-05 2.25745E-05 0.00000E+00
 -1       153-1.69242E-05 1.37751E-05 0.00000E+00
 -1       154-2.97933E-05 3.74179E-05 0.00000E+00
 -1       155-1.48677E-05 2.75126E-05 0.00000E+00
 -1       156-2.83656E-05 7.81217E-05 0.00000E+00
 -1       157-5.09047E-05 8.28285E-05 0.00000E+00
 -1       158-3.16200E-05 5.56719E-05 0.00000E+00
 -1       159-8.71892E-05 1.18754E-04 0.00000E+00
 -1       160-1.35636E-04 1.48680E-04 0.00000E+00
 -1       161-1.11895E-04 9.92413E-05 0.00000E+00
 -1       162-6.86316E-05 6.88400E-05 0.00000E+00
 -1       163-1.02612E-04 1.07972E-04 0.00000E+00
 -1       164-2.31218E-04 3.43811E-04 0.00000E+00
 -1       165-2.26078E-04 4.18333E-04 0.00000E+00
 -1       166-3.81608E-05 2.97044E-05 0.00000E+00
 -1       167-3.50557E-05 3.25108E-05 0.00000E+00
 -1       168-6.76538E-05 5.13210E-05 0.00000E+00
 -1       169-2.99927E-05 2.04796E-05 0.00000E+00
 -1       170-3.51293E-05 2.47561E-05 0.00000E+00
 -1       171-9.44152E-05 6.72956E-05 0.00000E+00
 -1       172-1.22442E-04 9.54045E-05 0.00000E+00
 -1       173-1.68003E-04 1.44716E-04 0.00000E+00
 -1       174-1.33494E-04 1.02533E-04 0.00000E+00
 -1       175-7.42713E-05 5.26185E-05 0.00000E+00
 -1       176-4.26424E-05 3.05916E-05 0.00000E+00
 -1       177-3.77406E-05 2.61987E-05 0.00000E+00
 -1       178-1.76328E-04 1.79597E-04 0.00000E+00
 -1       179-2.24592E-04 2.46779E-04 0.00000E+00
 -1       180-1.98005E-04 1.92075E-04 0.00000E+00
 -1       181-1.93713E-04 2.59054E-04 0.00000E+00
 -1       182-2.31781E-04 2.94404E-04 0.00000E+00
 -1       183-4.03715E-05 1.14564E-04 0.00000E+00
 -1       184-6.42074E-05 1.15906E-04 0.00000E+00
 -1       185-9.62003E-05 7.39537E-05 0.00000E+00
 -1       186-1.92641E-05 8.65534E-05 0.00000E+00
 -1       187-2.94213E-05 1.00207E-04 0.00000E+00
 -1       188-1.65633E-04 2.01667E-04 0.00000E+00
 -1       189-6.62895E-06 5.71013E-05 0.00000E+00
 -1       190-6.28606E-06 7.67060E-05 0.00000E+00
 -1       191-2.34910E-04 7.36074E-04 0.00000E+00
 -1       192-2.11738E-04 7.11660E-04 0.00000E+00
 -1       193-2.54118E-04 7.56304E-04 0.00000E+00
 -1       194-2.35316E-04 7.66378E-04 0.00000E+00
 -1       195-2.80111E-04 7.43937E-04 0.00000E+00
 -1       196-5.78813E-05 4.16631E-05 0.00000E+00
 -1       197-6.46671E-06 2.56265E-05 0.00000E+00
 -1       198-1.97952E-04 5.33015E-04 0.00000E+00
 -1       199-1.24921E-04 3.43064E-04 0.00000E+00
 -1       200-2.13755E-04 7.77388E-04 0.00000E+00
 -1       201-2.11466E-04 7.64258E-04 0.00000E+00
 -1       202-4.49332E-06 8.21453E-07 0.00000E+00
 -1       203-1.18071E-05 4.09297E-06 0.00000E+00
 -1       204-3.23274E-06-1.85060E-06 0.00000E+00
 -1       205-3.78614E-06-2.26284E-06 0.00000E+00
 -1       206-7.53935E-05 2.21455E-04 0.00000E+00
 -1       207-8.83360E-05 1.87461E-04 0.00000E+00
 -1       208-5.63261E-05 1.46522E-04 0.00000E+00
 -1       209-9.87853E-05 2.92577E-04 0.00000E+00
 -1       210-1.13819E-04 2.56575E-04 0.00000E+00
 -1       211-1.53631E-04 2.90927E-04 0.00000E+00
 -1       212-1.61285E-04 2.57955E-04 0.00000E+00
 -1       213-1.23799E-04 2.23662E-04 0.00000E+00
 -1       214-1.28993E-04 1.94489E-04 0.00000E+00
 -1       215-9.46654E-05 1.57942E-04 0.00000E+00
 -1       216-2.63572E-04 7.06973E-04 0.00000E+00
 -1       217-2.69060E-04 6.67307E-04 0.00000E+00
 -1       218-2.34061E-04 6.51728E-04 0.00000E+00
 -1       219-2.29083E-04 6.92023E-04 0.00000E+00
 -1       220-2.92617E-04 6.84391E-04 0.00000E+00
 -1       221-2.83408E-04 6.24415E-04 0.00000E+00
 -1       222-2.72887E-04 5.60783E-04 0.00000E+00
 -1       223-2.49086E-04 6.07997E-04 0.00000E+00
 -1       224-2.02313E-04 5.94003E-04 0.00000E+00
 -1       225-1.86573E-04 6.38321E-04 0.00000E+00
 -1       226-1.55660E-05 5.55154E-06 0.00000E+00
 -1       227-1.41536E-05 9.99518E-06 0.00000E+00
 -1       228-1.97906E-05 1.38447E-05 0.00000E+00
 -1       229-7.46467E-06 4.85745E-06 0.00000E+00
 -1       230-1.04416E-05 9.23566E-06 0.00000E+00
 -1       231-1.64389E-05 1.36529E-05 0.00000E+00
 -1       232-2.17474E-05 1.83274E-05 0.00000E+00
 -1       233-3.25944E-05 2.56022E-05 0.00000E+00
 -1       234-4.48472E-05 5.67079E-05 0.00000E+00
 -1       235-3.13244E-05 4.60788E-05 0.00000E+00
 -1       236-4.08399E-05 6.92197E-05 0.00000E+00
 -1       237-5.59185E-05 7.94582E-05 0.00000E+00
 -1       238-1.49824E-05 1.84349E-05 0.00000E+00
 -1       239-8.50503E-06 1.25522E-05 0.00000E+00
 -1       240-2.30041E-05 4.19551E-05 0.00000E+00
 -1       241-1.81697E-05 4.53128E-05 0.00000E+00
 -1       242-2.34628E-05 7.16433E-05 0.00000E+00
 -1       243-3.05944E-05 6.64338E-05 0.00000E+00
 -1       244-3.36608E-05 8.45708E-05 0.00000E+00
 -1       245-4.53663E-05 8.66965E-05 0.00000E+00
 -1       246-7.39192E-05 9.72058E-05 0.00000E+00
 -1       247-9.57275E-05 1.13051E-04 0.00000E+00
 -1       248-8.57118E-05 8.81628E-05 0.00000E+00
 -1       249-6.49944E-05 7.24103E-05 0.00000E+00
 -1       250-1.00161E-04 1.41025E-04 0.00000E+00
 -1       251-1.25521E-04 1.55735E-04 0.00000E+00
 -1       252-1.19227E-04 1.28159E-04 0.00000E+00
 -1       253-1.43345E-04 1.42167E-04 0.00000E+00
 -1       254-1.30480E-04 1.17553E-04 0.00000E+00
 -1       255-1.07960E-04 1.03406E-04 0.00000E+00
 -1       256-9.28326E-05 8.10115E-05 0.00000E+00
 -1       257-7.14204E-05 6.57041E-05 0.00000E+00
 -1       258-1.64170E-04 4.69292E-04 0.00000E+00
 -1       259-2.20193E-04 4.55527E-04 0.00000E+00
 -1       260-1.90023E-04 3.93030E-04 0.00000E+00
 -1       261-1.35031E-04 4.09220E-04 0.00000E+00
 -1       262-2.58812E-04 5.17553E-04 0.00000E+00
 -1       263-2.62363E-04 4.46013E-04 0.00000E+00
 -1       264-2.59414E-04 3.73534E-04 0.00000E+00
 -1       265-2.30025E-04 3.81066E-04 0.00000E+00
 -1       266-2.04138E-04 3.16458E-04 0.00000E+00
 -1       267-1.67734E-04 3.30368E-04 0.00000E+00
 -1       268-5.20296E-05 5.02782E-05 0.00000E+00
 -1       269-3.27084E-05 3.45434E-05 0.00000E+00
 -1       270-5.61775E-05 4.59282E-05 0.00000E+00
 -1       271-3.68876E-05 3.09071E-05 0.00000E+00
 -1       272-1.94370E-05 1.43284E-05 0.00000E+00
 -1       273-1.77540E-05 1.56002E-05 0.00000E+00
 -1       274-7.10407E-05 5.68841E-05 0.00000E+00
 -1       275-5.17479E-05 3.77966E-05 0.00000E+00
 -1       276-3.69648E-05 2.71035E-05 0.00000E+00
 -1       277-6.33928E-05 4.61665E-05 0.00000E+00
 -1       278-4.44291E-05 3.07907E-05 0.00000E+00
 -1       279-3.27939E-05 2.25780E-05 0.00000E+00
 -1       280-1.51744E-05 1.02656E-05 0.00000E+00
 -1       281-1.78717E-05 1.21800E-05 0.00000E+00
 -1       282-9.33259E-05 6.69277E-05 0.00000E+00
 -1       283-1.14110E-04 8.40422E-05 0.00000E+00
 -1       284-1.34344E-04 1.04000E-04 0.00000E+00
 -1       285-9.21787E-05 6.55477E-05 0.00000E+00
 -1       286-1.05782E-04 7.79959E-05 0.00000E+00
 -1       287-1.29271E-04 9.95602E-05 0.00000E+00
 -1       288-1.36888E-04 1.14727E-04 0.00000E+00
 -1       289-1.59487E-04 1.40732E-04 0.00000E+00
 -1       290-1.51726E-04 1.22703E-04 0.00000E+00
 -1       291-1.73337E-04 1.47801E-04 0.00000E+00
 -1       292-1.89140E-05 1.33979E-05 0.00000E+00
 -1       293-4.07244E-05 2.86841E-05 0.00000E+00
 -1       294-2.06235E-05 1.57296E-05 0.00000E+00
 -1       295-3.41410E-05 2.34474E-05 0.00000E+00
 -1       296-6.65775E-05 4.71460E-05 0.00000E+00
 -1       297-5.62971E-05 3.91810E-05 0.00000E+00
 -1       298-8.13364E-05 5.77114E-05 0.00000E+00
 -1       299-6.52349E-05 4.56840E-05 0.00000E+00
 -1       300-1.62839E-04 1.57179E-04 0.00000E+00
 -1       301-1.87711E-04 1.85815E-04 0.00000E+00
 -1       302-1.83454E-04 1.67475E-04 0.00000E+00
 -1       303-1.89165E-04 2.03273E-04 0.00000E+00
 -1       304-2.13103E-04 2.37264E-04 0.00000E+00
 -1       305-2.11779E-04 2.18620E-04 0.00000E+00
 -1       306-2.35960E-04 2.56913E-04 0.00000E+00
 -1       307-2.06876E-04 1.98375E-04 0.00000E+00
 -1       308-1.98657E-04 2.43473E-04 0.00000E+00
 -1       309-2.12606E-04 2.76159E-04 0.00000E+00
 -1       310-2.29347E-04 2.70386E-04 0.00000E+00
 -1       311-1.86700E-04 2.74952E-04 0.00000E+00
 -1       312-2.32490E-04 3.19003E-04 0.00000E+00
 -1       313-2.51550E-04 3.14156E-04 0.00000E+00
 -1       314-7.59121E-05 1.17234E-04 0.00000E+00
 -1       315-7.00467E-05 1.33799E-04 0.00000E+00
 -1       316-5.77310E-05 9.89832E-05 0.00000E+00
 -1       317-4.03204E-05 1.02771E-04 0.00000E+00
 -1       318-5.19707E-05 1.14969E-04 0.00000E+00
 -1       319-3.88388E-05 1.27130E-04 0.00000E+00
 -1       320-1.04980E-04 8.60355E-05 0.00000E+00
 -1       321-8.21373E-05 6.27563E-05 0.00000E+00
 -1       322-1.09700E-04 8.48617E-05 0.00000E+00
 -1       323-8.58530E-05 6.28806E-05 0.00000E+00
 -1       324-3.43555E-05 1.07347E-04 0.00000E+00
 -1       325-2.93001E-05 1.11296E-04 0.00000E+00
 -1       326-2.90719E-05 8.91463E-05 0.00000E+00
 -1       327-1.92223E-05 7.58977E-05 0.00000E+00
 -1       328-2.43579E-05 9.32773E-05 0.00000E+00
 -1       329-1.93761E-05 9.68032E-05 0.00000E+00
 -1       330-1.79833E-04 2.29771E-04 0.00000E+00
 -1       331-1.56644E-04 2.13452E-04 0.00000E+00
 -1       332-1.72216E-04 1.90400E-04 0.00000E+00
 -1       333-1.51012E-04 1.74636E-04 0.00000E+00
 -1       334-1.31892E-05 8.14281E-05 0.00000E+00
 -1       335-6.61094E-06 8.52726E-05 0.00000E+00
 -1       336-1.29406E-05 6.10106E-05 0.00000E+00
 -1       337-6.38262E-06 6.72932E-05 0.00000E+00
 -1       338 2.62833E-06 5.31629E-05 0.00000E+00
 -1       339 2.81059E-06 7.20200E-05 0.00000E+00
 -1       340-2.27884E-04 7.44970E-04 0.00000E+00
 -1       341-2.23455E-04 7.23885E-04 0.00000E+00
 -1       342-2.12606E-04 7.34289E-04 0.00000E+00
 -1       343-2.16828E-04 7.55311E-04 0.00000E+00
 -1       344-2.41829E-04 7.27153E-04 0.00000E+00
 -1       345-2.10288E-04 6.88769E-04 0.00000E+00
 -1       346-1.99651E-04 6.99389E-04 0.00000E+00
 -1       347-2.08909E-04 7.58275E-04 0.00000E+00
 -1       348-2.35260E-04 7.51269E-04 0.00000E+00
 -1       349-2.44740E-04 7.61341E-04 0.00000E+00
 -1       350-2.51629E-04 7.37348E-04 0.00000E+00
 -1       351-2.18681E-04 7.65145E-04 0.00000E+00
 -1       352-2.25871E-04 7.71410E-04 0.00000E+00
 -1       353-2.13949E-04 7.87795E-04 0.00000E+00
 -1       354-2.35074E-04 7.81486E-04 0.00000E+00
 -1       355-2.56126E-04 7.75164E-04 0.00000E+00
 -1       356-2.80722E-04 7.67690E-04 0.00000E+00
 -1       357-2.67178E-04 7.50102E-04 0.00000E+00
 -1       358-2.92877E-04 7.37804E-04 0.00000E+00
 -1       359-2.79486E-04 7.20027E-04 0.00000E+00
 -1       360-7.60311E-05 5.35502E-05 0.00000E+00
 -1       361-5.19286E-05 3.73174E-05 0.00000E+00
 -1       362-5.94111E-05 4.25699E-05 0.00000E+00
 -1       363-4.18320E-05 3.17559E-05 0.00000E+00
 -1       364-4.25879E-06 1.15457E-05 0.00000E+00
 -1       365-1.07903E-05 2.65639E-05 0.00000E+00
 -1       366-1.88294E-06 2.45133E-05 0.00000E+00
 -1       367-7.75274E-06 4.08804E-05 0.00000E+00
 -1       368-1.68756E-04 5.31428E-04 0.00000E+00
 -1       369-2.05508E-04 5.12876E-04 0.00000E+00
 -1       370-2.18460E-04 5.55057E-04 0.00000E+00
 -1       371-1.08031E-04 3.56079E-04 0.00000E+00
 -1       372-1.26473E-04 3.17137E-04 0.00000E+00
 -1       373-1.39126E-04 3.56266E-04 0.00000E+00
 -1       374-2.11873E-04 7.83307E-04 0.00000E+00
 -1       375-2.14253E-04 7.71975E-04 0.00000E+00
 -1       376-2.11606E-04 7.72926E-04 0.00000E+00
 -1       377-2.15080E-04 7.76905E-04 0.00000E+00
 -1       378-2.17770E-04 7.60225E-04 0.00000E+00
 -1       379-2.12176E-04 7.60539E-04 0.00000E+00
 -1       380-2.13089E-04 7.65419E-04 0.00000E+00
 -1       381-2.09133E-04 7.66842E-04 0.00000E+00
 -1       382-7.23847E-06-1.41457E-06 0.00000E+00
 -1       383-4.91247E-06-2.88733E-08 0.00000E+00
 -1       384-5.92405E-06 1.79061E-06 0.00000E+00
 -1       385-9.29879E-06 1.76309E-06 0.00000E+00
 -1       386-2.18224E-06-1.37321E-06 0.00000E+00
 -1       387-2.45077E-06 6.41226E-07 0.00000E+00
 -1       388-4.29826E-06 2.50071E-06 0.00000E+00
 -1       389-1.20835E-05 5.20307E-06 0.00000E+00
 -1       390-9.71465E-06 3.68517E-06 0.00000E+00
 -1       391-1.32346E-05 2.94695E-06 0.00000E+00
 -1       392-1.70627E-06-1.45996E-06 0.00000E+00
 -1       393-4.12620E-06-1.96722E-06 0.00000E+00
 -1       394-2.75612E-06-1.98313E-06 0.00000E+00
 -1       395-3.90095E-06-1.83531E-06 0.00000E+00
 -1       396-7.45071E-06-1.49886E-06 0.00000E+00
 -1       397-4.62060E-06-2.27146E-06 0.00000E+00
 -1       398-4.41791E-06-2.13775E-06 0.00000E+00
 -1       399-2.29677E-06-2.19769E-06 0.00000E+00
 -3
    1PSTEP                         2           1           1          
  100CL  101 1.000000000         397                     0    1           1
 -4  STRESS      6    1
 -5  SXX         1    4    1    1
 -5  SYY         1    4    2    2
 -5  SZZ         1    4    3    3
 -5  SXY         1    4    1    2
 -5  SYZ         1    4    2    3
 -5  SZX         1    4    3    1
 -1         1 7.15645E+05 1.79769E+05 1.79083E+05 5.80519E+05-1.54290E-13-5.50560E-14
 -1         2-3.89710E+05-3.96795E+05-1.57301E+05 1.61399E+04 5.82232E-12-2.27826E-13
 -1         3-9.60558E+03-2.53878E+05-5.26968E+04 1.45772E+05-3.15438E-12-1.42089E-13
 -1         4-1.49564E+05-1.18225E+05-5.35578E+04-2.12599E+03 6.36005E-12 7.86848E-12
 -1         5-1.02037E+05-1.02542E+05-4.09157E+04-3.57393E+02-2.22346E-11 2.99207E-12
 -1         6-1.03964E+05-1.02424E+05-4.12775E+04 7.90588E+01 2.53226E-11 8.14315E-12
 -1         8-4.59261E+05-3.83040E+05-1.68460E+05 3.08121E+05 5.54453E-13-8.11797E-13
 -1        10-9.03443E+04-1.01329E+05-3.83347E+04-5.71955E+03-1.15998E-13-2.96724E-13
 -1        11-9.93742E+04-1.00073E+05-3.98895E+04-5.70821E+03-2.49985E-14-1.18203E-13
 -1        12-8.53452E+04-5.43513E+04-2.79393E+04-2.87609E+04-2.81825E-15 5.85891E-14
 -1        13 4.09484E+05-3.22326E+05 1.74316E+04 2.23197E+05-9.83323E-13 3.39966E-14
 -1        14-5.62932E+04-3.76317E+05-8.65220E+04 4.92108E+04-5.88499E-13-2.51271E-13
 -1        15-2.59869E+05-4.18787E+05-1.35731E+05 2.61343E+04-1.53337E-12-2.49104E-13
 -1        16 6.34611E+05-5.35940E+04 1.16203E+05 4.27321E+05-6.77688E-14-2.54481E-14
 -1        17 1.02684E+05-3.87553E+05-5.69738E+04 9.96722E+04 1.35334E-12-2.84134E-13
 -1        18-1.67638E+05-4.12419E+05-1.16011E+05 3.74947E+04-1.64229E-12 1.68329E-13
 -1        19-3.27400E+05-4.22950E+05-1.50070E+05 1.63870E+04 2.62339E-12 4.21034E-14
 -1        20-2.50266E+05-2.93460E+05-1.08745E+05 1.22267E+05 4.48105E-12 5.52904E-15
 -1        21-1.93194E+05-2.48252E+05-8.82892E+04 1.55394E+05 2.18493E-13 2.85704E-13
 -1        22-1.73414E+05-2.10407E+05-7.67643E+04 1.78129E+05-8.54493E-12-9.44421E-13
 -1        23-3.16317E+05-3.36716E+05-1.30607E+05 6.54263E+04-5.61677E-12 1.82934E-13
 -1        24-2.19171E+05-2.57829E+05-9.54001E+04 1.38814E+05 2.67784E-12 2.05782E-13
 -1        25-1.91201E+05-2.36105E+05-8.54612E+04 1.66646E+05-1.52833E-12 5.63814E-13
 -1        26-6.29262E+04-1.89842E+05-5.05537E+04 2.13326E+05-1.71614E-12 1.29208E-12
 -1        27-2.71081E+05-3.31529E+05-1.20522E+05-7.57397E+03 6.83627E-12 6.22219E-14
 -1        28-2.70550E+05-2.93640E+05-1.12838E+05 8.46367E+02 4.79453E-12 2.72317E-12
 -1        29-2.63871E+05-2.62656E+05-1.05305E+05-4.46108E+02-3.00118E-12-2.77607E-13
 -1        30-2.70675E+05-2.31970E+05-1.00529E+05 2.55864E+03-3.80362E-12-3.66463E-13
 -1        31-2.81019E+05-1.98904E+05-9.59846E+04 1.86060E+02-1.21951E-11-2.89134E-12
 -1        32-2.68614E+05-1.68537E+05-8.74304E+04 7.91276E+02-1.70099E-11 2.78745E-12
 -1        33-2.23563E+05-1.33532E+05-7.14191E+04-7.34096E+02 7.42669E-12 6.94358E-12
 -1        34-1.71047E+05-3.35116E+05-1.01233E+05 3.24900E+04-1.98220E-12-1.88393E-13
 -1        35-2.71958E+05-3.19114E+05-1.18214E+05-1.69887E+03-4.30225E-12 3.42368E-12
 -1        36-2.64424E+05-2.80947E+05-1.09074E+05 6.93826E+02-1.16043E-11 1.22297E-12
 -1        37-2.68131E+05-2.48258E+05-1.03278E+05-2.34385E+02-2.16952E-12-2.91911E-12
 -1        38-2.74292E+05-2.16900E+05-9.82383E+04 9.88419E+02-8.42366E-12-1.43107E-12
 -1        39-2.77008E+05-1.83526E+05-9.21067E+04 6.19247E+02-1.41005E-12-2.40516E-12
 -1        40-2.48357E+05-1.51030E+05-7.98774E+04-6.93896E+02-1.53960E-11-1.28204E-12
 -1        41-1.84686E+05-1.17473E+05-6.04318E+04-2.97725E+03 3.57100E-11 7.19647E-12
 -1        42-1.28770E+05-9.57877E+04-4.49116E+04 1.97547E+03-4.74719E-12 4.09685E-13
 -1        43-1.21039E+05-1.00998E+05-4.44073E+04-5.68311E+01 3.73906E-11-2.88070E-12
 -1        44-1.09987E+05-1.00388E+05-4.20750E+04 7.59212E+02 2.73619E-11 4.49221E-13
 -1        45-1.38738E+05-1.06962E+05-4.91399E+04-2.98260E+03 4.75418E-12 3.42089E-13
 -1        46-1.24915E+05-9.99196E+04-4.49669E+04 1.25719E+02 2.25093E-11-6.85169E-13
 -1        47-1.15809E+05-1.01380E+05-4.34379E+04 1.71746E+02-1.50636E-12 4.51856E-12
 -1        48-1.06285E+05-1.02398E+05-4.17365E+04-7.51042E+02 1.13120E-11 2.34390E-12
 -1        49-1.01870E+05-1.00979E+05-4.05698E+04 1.14880E+00 1.69520E-11 2.64119E-12
 -1        50-1.02178E+05-1.03518E+05-4.11391E+04-8.15334E+02-7.88968E-12 4.04335E-12
 -1        51-1.02521E+05-1.04893E+05-4.14829E+04-5.92955E+02-2.84684E-13-6.72820E-12
 -1        52-1.01483E+05-1.01084E+05-4.05133E+04 1.28591E+02 6.03619E-11-1.60231E-12
 -1        53-1.01677E+05-1.02134E+05-4.07622E+04-5.49593E+02-1.59693E-11 3.95236E-12
 -1        54-1.02118E+05-1.04416E+05-4.13069E+04-7.66098E+02 1.46994E-11 1.83421E-12
 -1        55-1.02422E+05-1.03496E+05-4.11835E+04-2.10817E+02 3.70480E-12-4.04177E-14
 -1        56-1.51422E+05-1.03936E+05-5.10717E+04 9.95079E+03 1.44585E-11-9.62230E-13
 -1        57-1.91605E+05-1.09491E+05-6.02192E+04 2.43071E+04 1.51639E-11-5.83309E-12
 -1        58-2.45199E+05-1.18154E+05-7.26706E+04 4.70416E+04 1.72061E-11-8.16702E-12
 -1        59-3.07014E+05-1.35601E+05-8.85231E+04 8.39110E+04-8.67454E-12 3.76604E-12
 -1        60-3.76543E+05-1.54074E+05-1.06123E+05 1.24466E+05 2.63962E-12-8.47049E-12
 -1        61-4.47026E+05-1.87830E+05-1.26971E+05 1.73499E+05-2.96237E-12 5.61921E-12
 -1        62-5.07271E+05-2.29023E+05-1.47259E+05 2.27095E+05-8.16938E-12-5.16284E-12
 -1        63-5.54729E+05-2.76816E+05-1.66309E+05 2.78587E+05-2.72279E-12-2.28056E-12
 -1        64-5.67736E+05-3.19299E+05-1.77407E+05 3.14436E+05-7.00247E-12 1.10289E-11
 -1        65-5.42219E+05-3.47119E+05-1.77868E+05 3.24754E+05 4.24729E-13 1.91976E-12
 -1        66-4.76964E+05-3.53887E+05-1.66170E+05 3.00730E+05 1.79098E-12-4.19886E-12
 -1        67-1.28026E+05-1.02307E+05-4.60666E+04 5.31865E+03-2.82168E-12 3.11275E-12
 -1        68-1.70419E+05-1.05428E+05-5.51695E+04 1.75309E+04 1.19262E-11 4.70731E-12
 -1        69-2.16692E+05-1.10785E+05-6.54954E+04 3.52198E+04 3.29624E-11-1.15154E-11
 -1        70-2.78462E+05-1.26894E+05-8.10713E+04 6.44127E+04-8.10595E-12-7.15129E-12
 -1        71-3.41681E+05-1.40944E+05-9.65249E+04 1.02998E+05-1.61635E-11 4.17584E-12
 -1        72-4.13401E+05-1.68408E+05-1.16362E+05 1.48744E+05-1.50216E-11 1.39889E-11
 -1        73-4.79341E+05-2.06385E+05-1.37145E+05 2.00138E+05-6.51625E-12 8.34870E-12
 -1        74-5.33066E+05-2.50101E+05-1.56633E+05 2.52536E+05-9.98096E-13 5.97118E-12
 -1        75-5.60021E+05-2.98252E+05-1.71655E+05 2.98215E+05 3.51922E-12 7.64496E-12
 -1        76-5.55315E+05-3.37288E+05-1.78520E+05 3.22555E+05-5.74856E-12 7.11054E-12
 -1        77-5.11984E+05-3.54047E+05-1.73206E+05 3.18538E+05 2.52677E-12 9.50683E-13
 -1        78-4.49050E+05-3.48625E+05-1.59535E+05 2.95185E+05 1.49570E-13 1.59098E-12
 -1        79-2.52419E+05-3.93183E+05-1.29120E+05 2.07269E+05-1.42425E-13-1.34124E-12
 -1        80-1.20862E+05-2.62284E+05-7.66290E+04 6.53770E+04 1.12425E-13 1.14092E-12
 -1        81-8.30860E+04-1.44496E+05-4.55165E+04-5.77828E+03-1.23247E-14 2.76554E-13
 -1        82-3.72410E+05-4.24745E+05-1.59431E+05 2.72061E+05-1.09327E-12-2.76348E-12
 -1        83-1.59313E+05-3.31171E+05-9.80967E+04 1.28615E+05 1.42892E-12-1.49130E-12
 -1        84-8.21564E+04-1.99367E+05-5.63047E+04 2.28781E+04 2.04861E-13 5.73296E-14
 -1        85-8.73032E+04-1.21925E+05-4.18456E+04-8.86736E+03 8.73845E-14-2.14044E-13
 -1        86-1.15345E+05-1.20370E+05-4.71430E+04 1.64100E+04 8.51218E-14 1.80074E-13
 -1        87-1.18814E+05-1.18435E+05-4.74497E+04 1.88729E+04-8.80915E-15-1.21040E-13
 -1        88-1.10422E+05-1.16362E+05-4.53568E+04 3.64240E+03 2.61881E-14-1.08919E-13
 -1        89-1.05613E+05-1.15512E+05-4.42250E+04 6.43441E+03-2.25223E-13 9.23648E-13
 -1        90-1.19461E+05-1.22462E+05-4.83846E+04 1.68099E+04-1.16366E-14 5.93273E-14
 -1        91-1.11424E+05-1.02572E+05-4.27991E+04 1.81053E+04 3.48420E-14-2.98486E-13
 -1        92-1.00858E+05-9.92648E+04-4.00246E+04 2.04536E+03-9.13911E-14-4.74568E-14
 -1        93-9.40442E+04-1.04938E+05-3.97965E+04-8.37185E+03 9.06760E-15-2.30290E-14
 -1        94-8.69103E+04-9.46296E+04-3.63080E+04-1.18246E+04-2.62489E-14-4.34799E-14
 -1        95-6.82082E+04-1.13755E+05-3.63926E+04-1.56482E+04-1.81017E-14-1.27687E-15
 -1        96-9.89729E+04-9.82409E+04-3.94428E+04-6.87042E+03-3.23818E-14-2.06071E-15
 -1        97-8.65690E+04-9.86151E+04-3.70368E+04-9.62451E+03 6.79933E-15-2.98747E-14
 -1        98-8.36307E+04-1.01163E+05-3.69587E+04-1.58668E+04-9.00164E-15-8.98991E-16
 -1        99-5.57316E+04-1.00883E+05-3.13229E+04-1.81410E+04-4.18126E-15-4.25863E-14
 -1       100-2.18359E+05-5.45799E+04-5.45878E+04 2.70228E+04 1.06272E-14 2.03595E-14
 -1       101-2.70907E+05-7.20909E+04-6.85995E+04 7.48030E+04-1.51478E-14-1.37763E-13
 -1       102-4.03106E+05-1.00731E+05-1.00767E+05 1.41000E+05-1.10901E-13-1.59419E-13
 -1       103-5.59727E+05-1.35545E+05-1.39054E+05 1.73198E+05-2.83403E-14-3.37392E-14
 -1       104-6.51216E+05-1.62827E+05-1.62809E+05 1.76374E+05-8.04105E-14-2.21239E-13
 -1       105-6.83786E+05-1.71037E+05-1.70965E+05 1.71812E+05-7.07803E-14 6.25526E-14
 -1       106-6.72794E+05-1.68268E+05-1.68213E+05 1.66273E+05 4.80875E-13 3.51957E-14
 -1       107-6.26734E+05-1.56736E+05-1.56694E+05 1.63920E+05 2.17296E-13-1.27684E-13
 -1       108-5.48031E+05-1.36985E+05-1.37003E+05 1.70795E+05-2.24301E-13-2.66762E-15
 -1       109-4.44570E+05-1.10495E+05-1.11013E+05 2.00151E+05-4.73602E-14-2.74730E-13
 -1       110-3.33081E+05-8.27375E+04-8.31638E+04 2.55963E+05-2.38809E-13-6.47332E-14
 -1       111-1.66908E+05-4.10463E+04-4.15909E+04-7.08234E+03-4.18079E-15-6.87697E-16
 -1       112-2.47311E+05-6.18334E+04-6.18289E+04 5.10181E+04-1.32373E-14-2.29873E-14
 -1       113-3.26413E+05-8.13980E+04-8.15622E+04 1.06559E+05 1.59191E-14 1.96677E-13
 -1       114-4.79337E+05-1.19963E+05-1.19860E+05 1.61286E+05 8.67961E-15 3.14159E-13
 -1       115-6.07580E+05-1.51893E+05-1.51895E+05 1.74147E+05-1.51959E-13-8.38177E-14
 -1       116-6.70604E+05-1.67748E+05-1.67670E+05 1.75146E+05 2.46175E-13 1.87755E-13
 -1       117-6.82401E+05-1.70693E+05-1.70619E+05 1.68478E+05 7.86374E-14-1.34361E-14
 -1       118-6.53452E+05-1.63451E+05-1.63381E+05 1.64196E+05-1.90175E-13-1.51044E-14
 -1       119-5.90992E+05-1.47797E+05-1.47758E+05 1.66274E+05 1.09710E-13 1.32649E-13
 -1       120-4.98622E+05-1.24561E+05-1.24636E+05 1.83352E+05 1.16960E-13 1.76041E-13
 -1       121-4.09240E+05-1.02850E+05-1.02418E+05 2.21000E+05-5.27566E-14 8.72890E-14
 -1       122-1.55642E+05-3.97953E+04-3.90874E+04 3.42127E+05 3.67294E-14-3.87733E-15
 -1       123-5.02677E+05-2.41613E+05-1.48858E+05 1.86461E+05 4.13192E-12 2.98933E-12
 -1       124-3.60151E+05-2.56588E+05-1.23348E+05 1.38965E+05-9.93423E-14 2.26751E-12
 -1       125-2.05501E+05-2.72543E+05-9.56087E+04 2.03353E+05 8.11005E-13-8.09568E-14
 -1       126-1.73797E+05-1.14184E+05-5.75962E+04 2.46829E+03 1.76601E-12 1.38123E-12
 -1       127-2.37825E+05-2.32060E+05-9.39772E+04 1.49665E+05-2.71547E-13 2.57765E-13
 -1       128-5.72750E+05-2.08263E+05-1.56203E+05 1.88026E+05-4.26787E-13 1.99507E-12
 -1       129-1.48508E+05-1.13079E+05-5.23175E+04-3.37802E+03-1.90240E-11-5.42485E-13
 -1       130-3.50095E+05-2.76543E+05-1.25328E+05 1.18637E+05-1.86424E-12-3.32888E-12
 -1       131-5.37764E+05-1.73278E+05-1.42208E+05 1.70935E+05 1.51914E-12 4.11996E-13
 -1       132-4.01182E+05-1.89546E+05-1.18146E+05 1.61121E+05 1.65232E-12 1.52374E-12
 -1       133-4.52751E+05-2.80122E+05-1.46575E+05 1.94210E+05-3.00401E-12-9.61133E-12
 -1       134-6.19824E+05-1.67152E+05-1.57395E+05 1.72368E+05 1.28410E-12 6.54909E-14
 -1       135-2.61685E+05-1.59808E+05-8.42985E+04 4.88270E+04-2.55897E-11-6.41951E-13
 -1       136-2.93663E+05-2.00059E+05-9.87442E+04 7.27765E+04 1.83752E-12 3.63235E-12
 -1       137-3.01367E+05-2.57655E+05-1.11804E+05 6.07406E+04 3.10802E-12 1.02573E-12
 -1       138-3.00874E+05-2.86085E+05-1.17392E+05 6.23400E+04-5.34267E-12 2.46818E-12
 -1       139-1.25862E+05-1.01942E+05-4.55608E+04-2.00553E+03-9.83540E-12-4.41320E-12
 -1       140-1.35539E+05-1.03968E+05-4.79014E+04-2.04927E+03-7.32841E-12 3.08822E-12
 -1       141-1.46104E+05-1.14988E+05-5.22185E+04-1.43322E+03-2.55024E-12-2.19993E-12
 -1       142-1.21841E+05-8.87444E+04-4.21171E+04 2.38337E+03 1.42860E-14 3.36145E-14
 -1       143-1.79739E+05-9.54417E+04-5.50362E+04 2.67258E+04 1.39275E-14 5.28173E-15
 -1       144-1.58707E+05-1.33016E+05-5.83446E+04 3.11529E+04-1.10788E-13 5.57561E-14
 -1       145-1.19410E+05-9.93219E+04-4.37464E+04 2.68095E+03-3.73077E-14-1.26987E-13
 -1       146-3.51691E+05-2.79336E+05-1.26205E+05 1.21349E+05 2.17458E-12 2.31819E-12
 -1       147-2.86599E+05-2.58435E+05-1.09007E+05 1.29062E+05-2.89180E-12-6.95984E-13
 -1       148-2.83635E+05-2.97518E+05-1.16231E+05 7.96193E+04-1.29032E-12-2.66681E-13
 -1       149-1.85033E+05-1.13909E+05-5.97885E+04 1.26884E+04 1.31949E-11-5.16439E-12
 -1       150-2.24173E+05-1.39488E+05-7.27323E+04 5.44416E+03 4.67625E-12 4.93110E-12
 -1       151-2.30555E+05-1.33701E+05-7.28513E+04 2.92626E+04 9.70722E-12 6.80566E-13
 -1       152-3.80195E+05-1.75311E+05-1.11101E+05 1.55069E+05-1.85207E-13 7.55406E-13
 -1       153-2.27325E+05-1.64420E+05-7.83490E+04 8.98292E+04-5.95939E-14 9.10096E-14
 -1       154-4.07537E+05-1.69519E+05-1.15411E+05 1.84466E+05 6.54848E-13-1.68909E-13
 -1       155-3.19941E+05-1.72256E+05-9.84393E+04 2.28935E+05-1.06787E-13-3.89713E-13
 -1       156-2.18578E+05-2.53576E+05-9.44308E+04 1.73378E+05-9.69070E-13-4.04923E-13
 -1       157-3.27452E+05-2.05132E+05-1.06517E+05 1.51147E+05-6.86170E-13-7.36942E-13
 -1       158-3.11800E+05-2.06742E+05-1.03708E+05 1.82175E+05-1.74068E-13-1.98612E-13
 -1       159-3.80561E+05-2.18820E+05-1.19876E+05 1.52609E+05 1.40867E-12 5.67305E-13
 -1       160-4.42096E+05-2.38927E+05-1.36205E+05 1.63660E+05-4.30101E-13-3.02940E-12
 -1       161-5.17172E+05-2.03884E+05-1.44211E+05 1.73761E+05 3.72376E-12 1.30184E-12
 -1       162-4.78779E+05-1.78263E+05-1.31408E+05 1.68316E+05 1.23096E-12 6.57155E-13
 -1       163-4.59121E+05-2.07643E+05-1.33353E+05 1.64859E+05 5.63330E-13 1.15798E-12
 -1       164-3.90250E+05-2.50254E+05-1.28101E+05 1.55944E+05-8.01919E-12-3.81608E-12
 -1       165-3.33660E+05-2.22308E+05-1.11194E+05 1.11527E+05-7.16640E-12 7.36479E-12
 -1       166-5.81014E+05-1.55918E+05-1.47386E+05 1.70638E+05-5.61908E-13 4.94499E-13
 -1       167-5.09207E+05-1.54709E+05-1.32783E+05 1.74218E+05 1.35335E-13 2.15287E-13
 -1       168-5.88899E+05-1.68679E+05-1.51516E+05 1.72308E+05 8.48861E-13-5.28886E-13
 -1       169-6.52628E+05-1.62209E+05-1.62967E+05 1.70288E+05 6.60179E-15 2.78369E-14
 -1       170-6.30890E+05-1.59327E+05-1.58043E+05 1.69567E+05-8.75366E-13 1.66691E-13
 -1       171-5.09944E+05-2.74491E+05-1.56887E+05 2.13293E+05-1.84551E-13 1.77628E-12
 -1       172-5.55099E+05-2.24678E+05-1.55955E+05 1.94108E+05 1.54634E-12-1.48864E-13
 -1       173-5.28790E+05-2.80378E+05-1.61834E+05 2.29988E+05 2.66122E-12 1.20191E-12
 -1       174-5.38653E+05-2.74126E+05-1.62556E+05 2.36693E+05-2.75382E-12-3.49571E-12
 -1       175-6.01806E+05-1.80662E+05-1.56494E+05 1.77022E+05-7.21442E-13-1.30080E-12
 -1       176-5.77357E+05-1.69446E+05-1.49361E+05 1.70305E+05 3.63953E-13-3.65872E-13
 -1       177-6.30356E+05-1.62238E+05-1.58519E+05 1.70618E+05 3.46852E-14-5.40908E-13
 -1       178-4.71512E+05-2.68607E+05-1.48024E+05 1.91877E+05-3.35343E-12-3.25411E-12
 -1       179-4.92951E+05-2.85170E+05-1.55624E+05 2.30892E+05 4.27713E-12 4.57977E-12
 -1       180-5.10481E+05-2.93290E+05-1.60754E+05 2.36621E+05 9.95889E-13 2.63525E-12
 -1       181-3.98934E+05-2.77133E+05-1.35213E+05 1.57994E+05 7.15210E-13-4.08713E-12
 -1       182-4.40371E+05-2.66794E+05-1.41433E+05 1.92271E+05 1.47813E-12-5.21265E-12
 -1       183-1.71476E+05-2.25452E+05-7.93856E+04 1.23315E+05-4.27753E-12 8.95121E-13
 -1       184-2.97875E+05-2.18771E+05-1.03329E+05 1.38031E+05-1.32727E-13-1.17020E-12
 -1       185-5.72507E+05-1.90730E+05-1.52647E+05 1.78265E+05-5.02996E-13-1.35630E-12
 -1       186-1.89682E+05-2.76650E+05-9.32664E+04 1.66278E+05 1.22158E-12-6.91070E-14
 -1       187-1.64161E+05-2.50825E+05-8.29972E+04 1.68351E+05-3.46692E-12-9.58707E-13
 -1       188-4.12392E+05-2.68827E+05-1.36244E+05 1.60074E+05-2.98075E-12-1.30998E-12
 -1       189-1.28414E+05-3.34511E+05-9.25850E+04 2.19579E+05-2.29122E-13 1.81064E-13
 -1       190-1.86287E+05-3.51284E+05-1.07514E+05 1.47124E+05 1.16313E-12-2.31253E-14
 -1       191-1.61872E+05-1.13570E+05-5.50883E+04-2.36891E+02-2.19341E-11-4.23724E-12
 -1       192-1.90176E+05-1.19934E+05-6.20219E+04-4.28162E+02 1.03643E-11-4.63353E-12
 -1       193-1.39231E+05-1.08301E+05-4.95065E+04-1.08236E+03-2.15736E-11-4.72606E-13
 -1       194-1.32763E+05-1.06656E+05-4.78839E+04-2.58387E+03 2.26711E-11-9.07833E-14
 -1       195-1.46231E+05-1.07240E+05-5.06942E+04 2.56161E+03 6.91089E-12-1.18336E-11
 -1       196-4.75607E+05-2.22835E+05-1.39688E+05 1.82822E+05-4.33235E-13 5.75253E-13
 -1       197-1.54406E+05-1.40988E+05-5.90789E+04 3.32541E+05-1.23742E-12-4.85701E-14
 -1       198-2.75776E+05-1.87535E+05-9.26623E+04 4.36303E+04-8.90851E-12-8.80309E-12
 -1       199-2.89168E+05-2.69782E+05-1.11790E+05 4.15710E+04-1.11191E-11 4.43768E-12
 -1       200-1.23948E+05-1.03669E+05-4.55233E+04-5.15299E+02 1.26069E-11-3.01719E-12
 -1       201-1.40179E+05-1.06650E+05-4.93658E+04-4.98850E+03-1.55052E-11 2.65812E-12
 -1       202-1.74765E+05-7.16694E+04-4.92869E+04 1.31909E+04 2.29269E-15-6.92994E-14
 -1       203-1.46850E+05-1.14356E+05-5.22413E+04 1.72503E+04 1.22795E-13 4.26293E-13
 -1       204-1.11785E+05-8.52181E+04-3.94006E+04-7.62049E+03-3.10116E-15-4.38813E-15
 -1       205-1.05973E+05-9.78426E+04-4.07630E+04 1.01630E+02-1.68737E-14-7.15782E-14
 -1       206-2.75714E+05-3.11620E+05-1.17467E+05 3.88821E+04-3.04507E-12 2.52834E-12
 -1       207-2.85312E+05-2.96532E+05-1.16369E+05 9.65429E+04-5.58143E-12 5.07894E-13
 -1       208-1.93108E+05-2.71956E+05-9.30127E+04 1.20917E+05 5.84320E-12 2.73801E-12
 -1       209-2.81104E+05-2.90546E+05-1.14330E+05 2.98156E+04 5.54743E-12-2.48863E-12
 -1       210-3.00670E+05-2.96709E+05-1.19476E+05 6.92724E+04-1.61176E-12-1.98974E-13
 -1       211-3.28058E+05-2.80057E+05-1.21623E+05 9.20942E+04 6.85340E-12-1.05678E-12
 -1       212-3.52952E+05-2.81612E+05-1.26913E+05 1.19181E+05-2.55581E-12-2.05804E-13
 -1       213-3.17591E+05-2.90338E+05-1.21586E+05 9.78934E+04 2.46957E-12-7.14806E-12
 -1       214-3.56062E+05-2.72760E+05-1.25764E+05 1.29763E+05-5.88598E-12-4.65903E-12
 -1       215-3.28608E+05-2.61596E+05-1.18041E+05 1.31386E+05 3.96450E-12 3.50732E-12
 -1       216-1.79669E+05-1.15261E+05-5.89860E+04 7.58617E+03 8.30792E-12 5.48987E-12
 -1       217-2.06040E+05-1.21868E+05-6.55815E+04 2.08632E+04-1.14144E-11 9.85817E-12
 -1       218-2.23706E+05-1.37001E+05-7.21414E+04 1.71119E+04-1.36958E-11-1.39436E-11
 -1       219-1.99353E+05-1.26741E+05-6.52187E+04 5.00919E+03 1.55395E-11-1.37566E-12
 -1       220-1.88856E+05-1.11450E+05-6.00611E+04 1.86716E+04 6.91567E-12-8.59429E-12
 -1       221-2.34535E+05-1.24958E+05-7.18985E+04 3.94818E+04-7.43104E-13 1.75311E-12
 -1       222-2.81124E+05-1.46288E+05-8.54823E+04 6.70670E+04 1.15784E-11-2.38279E-12
 -1       223-2.48085E+05-1.47117E+05-7.90406E+04 3.90118E+04 1.79186E-11 1.48042E-12
 -1       224-2.60881E+05-1.65077E+05-8.51917E+04 2.41045E+04 6.82616E-12-2.60073E-12
 -1       225-2.47825E+05-1.54146E+05-8.03943E+04 3.64997E+03 1.67540E-11-1.53124E-12
 -1       226-1.24498E+05-1.26178E+05-5.01352E+04 1.35221E+04 7.29014E-14 5.07663E-13
 -1       227-1.84157E+05-1.41666E+05-6.51647E+04 5.62195E+04-2.26999E-13-5.38178E-13
 -1       228-1.67677E+05-1.77973E+05-6.91300E+04 5.37456E+04-2.31157E-13-3.68457E-13
 -1       229-2.18663E+05-1.01194E+05-6.39712E+04 5.52241E+04 7.33117E-14 2.66152E-13
 -1       230-3.24100E+05-1.34810E+05-9.17820E+04 1.18144E+05-5.25548E-14 6.00606E-14
 -1       231-4.73289E+05-1.52529E+05-1.25164E+05 1.62777E+05-7.34539E-14-7.08927E-13
 -1       232-2.99084E+05-1.72574E+05-9.43316E+04 1.24382E+05-1.78001E-13 1.09122E-12
 -1       233-2.67018E+05-2.32788E+05-9.99614E+04 1.23247E+05-5.99483E-13 2.09845E-14
 -1       234-4.03852E+05-1.80673E+05-1.16905E+05 1.71189E+05 6.34259E-13-1.73683E-12
 -1       235-3.61467E+05-1.84801E+05-1.09254E+05 1.84388E+05 9.64528E-13 1.84613E-13
 -1       236-3.17939E+05-2.06047E+05-1.04797E+05 1.66310E+05 9.37649E-13 1.60610E-12
 -1       237-3.66674E+05-1.98246E+05-1.12984E+05 1.57564E+05-1.99438E-13-6.23831E-13
 -1       238-4.25915E+05-1.43421E+05-1.13867E+05 1.93866E+05 1.48145E-14-2.26093E-13
 -1       239-3.82323E+05-1.32042E+05-1.02873E+05 2.17388E+05 1.36744E-13 4.09688E-14
 -1       240-3.16373E+05-1.94951E+05-1.02265E+05 2.06362E+05-5.28382E-13-4.33458E-13
 -1       241-2.54237E+05-2.19564E+05-9.47602E+04 2.22192E+05-3.69838E-13-4.41946E-13
 -1       242-2.13070E+05-2.60375E+05-9.46891E+04 1.88661E+05 1.71345E-12-7.44273E-13
 -1       243-2.64035E+05-2.30023E+05-9.88115E+04 1.79076E+05 4.10576E-13 6.19309E-13
 -1       244-2.23741E+05-2.41356E+05-9.30194E+04 1.61173E+05 4.02893E-14-1.72845E-14
 -1       245-2.81943E+05-2.18938E+05-1.00176E+05 1.50429E+05-9.68620E-14-3.35851E-13
 -1       246-3.90583E+05-2.02412E+05-1.18599E+05 1.55865E+05-1.64204E-12-7.53000E-13
 -1       247-4.22514E+05-2.13542E+05-1.27211E+05 1.58991E+05-4.61630E-12 6.76071E-13
 -1       248-4.68970E+05-1.91802E+05-1.32154E+05 1.65567E+05 2.80164E-12-3.38391E-12
 -1       249-4.43801E+05-1.84567E+05-1.25674E+05 1.64973E+05-2.67347E-12 1.93533E-12
 -1       250-3.70517E+05-2.37901E+05-1.21684E+05 1.46027E+05 6.16598E-13 1.74086E-12
 -1       251-4.02775E+05-2.47522E+05-1.30059E+05 1.52127E+05-5.45883E-13 2.71388E-12
 -1       252-4.49536E+05-2.23502E+05-1.34608E+05 1.63592E+05 2.36097E-12 7.11641E-13
 -1       253-4.73822E+05-2.40797E+05-1.42924E+05 1.75115E+05 4.98312E-12 1.95050E-12
 -1       254-5.07701E+05-2.22365E+05-1.46013E+05 1.79389E+05-2.40854E-12-6.76522E-13
 -1       255-4.90974E+05-2.06352E+05-1.39465E+05 1.69240E+05 3.26439E-12-3.08186E-12
 -1       256-5.26909E+05-1.87777E+05-1.42937E+05 1.71439E+05-6.75962E-13-4.49158E-12
 -1       257-5.11274E+05-1.76692E+05-1.37593E+05 1.69425E+05-2.55581E-12 5.65486E-13
 -1       258-2.85155E+05-2.17576E+05-1.00546E+05 3.82162E+04-4.43869E-12 1.84721E-12
 -1       259-3.12087E+05-2.08351E+05-1.04088E+05 9.12412E+04 3.13383E-12 2.44597E-12
 -1       260-3.20078E+05-2.42465E+05-1.12509E+05 8.84543E+04 4.36265E-12 2.78889E-12
 -1       261-2.82833E+05-2.42673E+05-1.05101E+05 3.15859E+04 1.96039E-12-1.64547E-12
 -1       262-3.04781E+05-1.68614E+05-9.46790E+04 8.06645E+04-1.31615E-11-2.95098E-12
 -1       263-3.60093E+05-1.94054E+05-1.10829E+05 1.21853E+05-2.05955E-11 1.28049E-11
 -1       264-4.20634E+05-2.23054E+05-1.28738E+05 1.66961E+05 1.73914E-12-2.14816E-12
 -1       265-3.63156E+05-2.35257E+05-1.19682E+05 1.33813E+05-4.38530E-13 8.01226E-12
 -1       266-3.71913E+05-2.65089E+05-1.27400E+05 1.38160E+05-7.63586E-12 1.39319E-12
 -1       267-3.22317E+05-2.67164E+05-1.17896E+05 9.15813E+04-9.44140E-12-1.03739E-12
 -1       268-4.93638E+05-1.66436E+05-1.32015E+05 1.70056E+05-1.06297E-12 2.43293E-12
 -1       269-4.61731E+05-1.61652E+05-1.24677E+05 1.77812E+05 2.80561E-12 9.78724E-14
 -1       270-5.58924E+05-1.63220E+05-1.44429E+05 1.70535E+05 4.65337E-13-6.14306E-13
 -1       271-5.48934E+05-1.57268E+05-1.41240E+05 1.71753E+05-1.86131E-13-1.24604E-12
 -1       272-6.03129E+05-1.54094E+05-1.51445E+05 1.67589E+05-6.21822E-13 5.60923E-13
 -1       273-5.28465E+05-1.46832E+05-1.35059E+05 1.73517E+05 1.77405E-13 9.78652E-14
 -1       274-5.66008E+05-1.71974E+05-1.47596E+05 1.71033E+05 2.14994E-12 3.10767E-12
 -1       275-6.08807E+05-1.62012E+05-1.54164E+05 1.71262E+05-1.56764E-12-2.37744E-13
 -1       276-6.09716E+05-1.59054E+05-1.53754E+05 1.69422E+05-5.54079E-15 2.27399E-13
 -1       277-6.06998E+05-1.69129E+05-1.55225E+05 1.71878E+05-4.27762E-13-1.31271E-12
 -1       278-6.35085E+05-1.63270E+05-1.59671E+05 1.71933E+05 7.27621E-14 3.57306E-13
 -1       279-6.45677E+05-1.62155E+05-1.61566E+05 1.69588E+05-7.46814E-13-2.32664E-13
 -1       280-6.66257E+05-1.63136E+05-1.65879E+05 1.72242E+05 8.03090E-15-4.15049E-13
 -1       281-6.50827E+05-1.60959E+05-1.62357E+05 1.68245E+05-3.66857E-13 2.78008E-13
 -1       282-4.65037E+05-3.17697E+05-1.56547E+05 2.49755E+05-3.08056E-13 1.71646E-12
 -1       283-5.20165E+05-2.71125E+05-1.58258E+05 2.27264E+05-8.44597E-13-2.00013E-12
 -1       284-5.05519E+05-3.11663E+05-1.63436E+05 2.67324E+05-3.38191E-13 3.35707E-12
 -1       285-5.38807E+05-2.35285E+05-1.54818E+05 1.99128E+05 3.91855E-13-3.39971E-12
 -1       286-5.61971E+05-2.16163E+05-1.55627E+05 1.92498E+05 9.99254E-13-1.55762E-12
 -1       287-5.44667E+05-2.47183E+05-1.58370E+05 2.12929E+05-6.70515E-13 4.07595E-12
 -1       288-5.29708E+05-2.33468E+05-1.52635E+05 1.91306E+05 1.72835E-12 2.20325E-13
 -1       289-5.13299E+05-2.59173E+05-1.54494E+05 2.06656E+05 2.05814E-12-4.51239E-12
 -1       290-5.31855E+05-2.76296E+05-1.61630E+05 2.34215E+05 1.39453E-12-2.12581E-12
 -1       291-5.31359E+05-3.10115E+05-1.68295E+05 2.73919E+05-1.57492E-12 7.32600E-12
 -1       292-6.36496E+05-1.60118E+05-1.59323E+05 1.74856E+05-1.67562E-14 2.04865E-13
 -1       293-6.07851E+05-1.67118E+05-1.54994E+05 1.71166E+05-4.44956E-13-6.47815E-13
 -1       294-5.64525E+05-1.51879E+05-1.43281E+05 1.71506E+05-1.07711E-13-2.07547E-13
 -1       295-6.44403E+05-1.63664E+05-1.61613E+05 1.70934E+05-2.61161E-14 5.68769E-15
 -1       296-6.10386E+05-1.73942E+05-1.56866E+05 1.74368E+05-6.68147E-13-8.34815E-13
 -1       297-6.14483E+05-1.72264E+05-1.57349E+05 1.74525E+05 7.60323E-13 3.16595E-13
 -1       298-5.85820E+05-1.93762E+05-1.55916E+05 1.82297E+05 2.94754E-12 1.38052E-12
 -1       299-5.73063E+05-1.90767E+05-1.52766E+05 1.78344E+05-6.18706E-13-1.91541E-12
 -1       300-4.86276E+05-2.56693E+05-1.48594E+05 1.89461E+05-1.22984E-12-3.35655E-12
 -1       301-4.89043E+05-2.78525E+05-1.53514E+05 2.12383E+05-4.68156E-12 7.00079E-12
 -1       302-5.18561E+05-2.88156E+05-1.61343E+05 2.34044E+05 1.85501E-13 1.85208E-12
 -1       303-4.62709E+05-2.76871E+05-1.47916E+05 1.93447E+05 2.14434E-13-6.91029E-12
 -1       304-4.70668E+05-2.80648E+05-1.50263E+05 2.11171E+05-1.22622E-12 6.41054E-12
 -1       305-5.01310E+05-2.89809E+05-1.58224E+05 2.34298E+05-1.16692E-11-3.91317E-13
 -1       306-5.18771E+05-2.78664E+05-1.59487E+05 2.52672E+05-1.12257E-13 1.28624E-11
 -1       307-5.32310E+05-3.03120E+05-1.67086E+05 2.72356E+05-4.12226E-12 6.31360E-13
 -1       308-4.26337E+05-2.77654E+05-1.40798E+05 1.76407E+05-2.62509E-12-7.61327E-13
 -1       309-4.20066E+05-2.72307E+05-1.38475E+05 1.74982E+05-7.96847E-12-1.90997E-12
 -1       310-4.67131E+05-2.74117E+05-1.48250E+05 2.11347E+05 1.87668E-12-1.73803E-12
 -1       311-3.74662E+05-2.76265E+05-1.30185E+05 1.39264E+05 7.94735E-12 4.01088E-12
 -1       312-4.16276E+05-2.57399E+05-1.34735E+05 1.74427E+05-7.66086E-13-1.05434E-11
 -1       313-4.73468E+05-2.49618E+05-1.44617E+05 2.10189E+05-6.44236E-12 3.99922E-12
 -1       314-3.44794E+05-2.20584E+05-1.13076E+05 1.47783E+05 2.69598E-13-4.26697E-13
 -1       315-2.84620E+05-2.32011E+05-1.03326E+05 1.35730E+05-6.33426E-12 9.83580E-13
 -1       316-3.15812E+05-2.11094E+05-1.05381E+05 1.43481E+05 1.27055E-12 1.92561E-12
 -1       317-2.11486E+05-2.34063E+05-8.91098E+04 1.37932E+05-8.88718E-13-2.51111E-13
 -1       318-2.55718E+05-2.23000E+05-9.57436E+04 1.33422E+05-4.59335E-12-5.43143E-13
 -1       319-7.97999E+04-2.32867E+05-6.25333E+04 1.38415E+05 1.61448E-12-7.22234E-14
 -1       320-5.45949E+05-1.97787E+05-1.48747E+05 1.76225E+05 2.00461E-12 2.32590E-12
 -1       321-5.79551E+05-1.78370E+05-1.51584E+05 1.74422E+05-8.66709E-13-1.24159E-12
 -1       322-5.60475E+05-2.06024E+05-1.53300E+05 1.85321E+05 1.99223E-12 1.44601E-12
 -1       323-5.87738E+05-1.86638E+05-1.54875E+05 1.78185E+05 2.76868E-12-6.45711E-14
 -1       324-1.75899E+05-2.38117E+05-8.28033E+04 1.50966E+05-2.80133E-13-4.26475E-13
 -1       325-1.71813E+05-2.45082E+05-8.33790E+04 1.65405E+05-1.27724E-12 1.75740E-13
 -1       326-1.99123E+05-2.54778E+05-9.07804E+04 1.71208E+05 3.48610E-12-1.51286E-13
 -1       327-1.94565E+05-2.79305E+05-9.47740E+04 1.81618E+05 3.25663E-13-7.05892E-14
 -1       328-1.87047E+05-2.65197E+05-9.04488E+04 1.63994E+05-2.26927E-12-8.99686E-13
 -1       329-1.94585E+05-2.64690E+05-9.18550E+04 1.60212E+05 1.40068E-13-2.65076E-13
 -1       330-4.07209E+05-2.76265E+05-1.36695E+05 1.58778E+05-3.65484E-12-9.52574E-12
 -1       331-3.82632E+05-2.74447E+05-1.31416E+05 1.41354E+05 6.89052E-12 2.01936E-12
 -1       332-4.43293E+05-2.68062E+05-1.42271E+05 1.76162E+05-6.62920E-12-1.12350E-12
 -1       333-4.27006E+05-2.56481E+05-1.36698E+05 1.61591E+05 3.36722E-12 4.90353E-12
 -1       334-1.96159E+05-3.05067E+05-1.00245E+05 1.55148E+05-6.46450E-13 1.47095E-13
 -1       335-2.24867E+05-3.33171E+05-1.11608E+05 1.30574E+05 1.62421E-12-9.51971E-14
 -1       336-1.83669E+05-2.97508E+05-9.62353E+04 2.08377E+05 1.67534E-13-5.14216E-13
 -1       337-1.64542E+05-3.48957E+05-1.02700E+05 1.80668E+05-7.63310E-13-2.58671E-15
 -1       338-1.26524E+05-3.77591E+05-1.00823E+05 1.52350E+05 2.22872E-13 3.87027E-14
 -1       339-2.30004E+05-3.80902E+05-1.22181E+05 8.84740E+04 2.97288E-12-1.38415E-13
 -1       340-1.53913E+05-1.12127E+05-5.32080E+04-7.05211E+02-1.08617E-11-3.25834E-12
 -1       341-1.76412E+05-1.15530E+05-5.83886E+04 4.49933E+01-1.51121E-11 2.32303E-12
 -1       342-1.69310E+05-1.14684E+05-5.67988E+04-5.11601E+02 1.61317E-11-4.42740E-12
 -1       343-1.45505E+05-1.11802E+05-5.14614E+04-1.42534E+03-1.86120E-12-7.04199E-12
 -1       344-1.68101E+05-1.14328E+05-5.64858E+04 1.10593E+03 1.97679E-11-4.73879E-13
 -1       345-2.08324E+05-1.30629E+05-6.77907E+04 1.41912E+03-9.99335E-12-4.06043E-12
 -1       346-2.07455E+05-1.25538E+05-6.65987E+04-1.31761E+03 2.84664E-12 7.48295E-12
 -1       347-1.48527E+05-1.18461E+05-5.33976E+04-3.77463E+03-5.91026E-12 2.01745E-12
 -1       348-1.46812E+05-1.10067E+05-5.13758E+04-1.36843E+03-1.63675E-11-3.36748E-12
 -1       349-1.36027E+05-1.07320E+05-4.86693E+04-1.83082E+03-4.71623E-12-3.08745E-12
 -1       350-1.56244E+05-1.10357E+05-5.33202E+04 8.77955E+02 5.20979E-12 4.68080E-12
 -1       351-1.36118E+05-1.06741E+05-4.85717E+04-2.10133E+03 1.06439E-11-1.75138E-12
 -1       352-1.29491E+05-1.04738E+05-4.68459E+04-2.19964E+03-2.79383E-11 9.60821E-12
 -1       353-1.11950E+05-1.00225E+05-4.24351E+04 6.43774E+02 1.11072E-11-1.92973E-12
 -1       354-1.17107E+05-1.02877E+05-4.39968E+04-9.72887E+02-1.45784E-11 7.49419E-13
 -1       355-1.20365E+05-1.04756E+05-4.50241E+04-8.83457E+02 2.25397E-11 1.12260E-11
 -1       356-1.23876E+05-1.04536E+05-4.56825E+04 1.27639E+03 1.57070E-11-7.94639E-12
 -1       357-1.42804E+05-1.07875E+05-5.01358E+04 6.40913E+02 8.99890E-13-4.66648E-12
 -1       358-1.49114E+05-1.05915E+05-5.10059E+04 6.11248E+03 4.17413E-12 2.11838E-12
 -1       359-1.64885E+05-1.08788E+05-5.47346E+04 7.95216E+03 2.77544E-11-3.17683E-12
 -1       360-4.92318E+05-2.53934E+05-1.49250E+05 1.96472E+05 1.85702E-12-2.40920E-14
 -1       361-5.21346E+05-1.93576E+05-1.42984E+05 1.74594E+05 8.96298E-13 2.09693E-12
 -1       362-3.71230E+05-2.98769E+05-1.34000E+05 1.92977E+05-8.23785E-14 9.80423E-13
 -1       363-4.20735E+05-1.99854E+05-1.24118E+05 1.68437E+05 2.85603E-13-1.98320E-13
 -1       364-2.15849E+05-9.91246E+04-6.29947E+04 2.99959E+05 5.99110E-13-7.97203E-15
 -1       365-2.88197E+05-1.82711E+05-9.41815E+04 2.53731E+05 3.16676E-13-2.36677E-13
 -1       366-1.16307E+05-2.54123E+05-7.40860E+04 2.72721E+05-8.27953E-13 1.48733E-13
 -1       367-1.50300E+05-2.34268E+05-7.69136E+04 2.78788E+05-3.26941E-13-2.40935E-13
 -1       368-2.77329E+05-1.95066E+05-9.44789E+04 2.35285E+04-2.82253E-12 2.17179E-12
 -1       369-2.83005E+05-1.92590E+05-9.51190E+04 5.76556E+04-1.72684E-11-2.91200E-12
 -1       370-2.73472E+05-1.77733E+05-9.02409E+04 4.89393E+04 3.65993E-12-3.17059E-12
 -1       371-2.77076E+05-2.66447E+05-1.08704E+05 2.05624E+04 1.09681E-11 1.38977E-12
 -1       372-2.96465E+05-2.78652E+05-1.15023E+05 5.05362E+04 8.21887E-13 1.66205E-12
 -1       373-2.94544E+05-2.63276E+05-1.11564E+05 5.04391E+04-4.40736E-12-2.75078E-12
 -1       374-1.17374E+05-1.01376E+05-4.37502E+04-3.73827E+02-3.25161E-11 3.48813E-12
 -1       375-1.29251E+05-1.00558E+05-4.59618E+04-1.16718E+03-3.35153E-12-9.70570E-13
 -1       376-1.27796E+05-1.01388E+05-4.58368E+04-6.82644E+02-1.22744E-12 9.36628E-13
 -1       377-1.24966E+05-1.03247E+05-4.56426E+04-1.25242E+03 1.03456E-11-3.47229E-12
 -1       378-1.43884E+05-1.11003E+05-5.09775E+04-4.39320E+03-1.55394E-11 4.38474E-12
 -1       379-1.40649E+05-1.08979E+05-4.99255E+04-3.76986E+03-1.99164E-11 5.80059E-12
 -1       380-1.37695E+05-1.03283E+05-4.81957E+04-2.56277E+03 2.30895E-11 3.93147E-12
 -1       381-1.36313E+05-1.03154E+05-4.78934E+04-1.76673E+03-1.62215E-11-2.52174E-14
 -1       382-1.22585E+05-1.19714E+05-4.84597E+04 8.93076E+03 5.47815E-15-9.34052E-14
 -1       383-1.51202E+05-8.69563E+04-4.76317E+04 8.62644E+03 1.49970E-14-3.23994E-14
 -1       384-1.83566E+05-9.02854E+04-5.47703E+04 2.35105E+04 2.76797E-14 1.33850E-13
 -1       385-1.48886E+05-1.05337E+05-5.08445E+04 1.74095E+04 2.59490E-14-2.40416E-14
 -1       386-1.04716E+05-8.15544E+04-3.72540E+04-1.79713E+04 2.26689E-15-1.02626E-13
 -1       387-1.94034E+05-6.77182E+04-5.23505E+04 1.96638E+04-2.07232E-14 7.08528E-14
 -1       388-2.28202E+05-8.41286E+04-6.24660E+04 5.35491E+04 5.63968E-14-3.84460E-14
 -1       389-1.49273E+05-1.21216E+05-5.40979E+04 2.29570E+04 1.09697E-13-6.66320E-15
 -1       390-1.64753E+05-1.14001E+05-5.57509E+04 2.40587E+04 5.21985E-14 3.91599E-14
 -1       391-1.27903E+05-1.17157E+05-4.90120E+04 1.48811E+04-3.13607E-14 2.33139E-14
 -1       392-9.45976E+04-8.66417E+04-3.62479E+04-1.17877E+04-3.21843E-14 9.35003E-15
 -1       393-1.18890E+05-1.02876E+05-4.43531E+04-4.90337E+03-1.83036E-14 1.08144E-13
 -1       394-1.02210E+05-9.59305E+04-3.96282E+04-4.93464E+03 1.00801E-14-5.07358E-14
 -1       395-1.17245E+05-8.11737E+04-3.96837E+04-1.10694E+03 2.80388E-14 1.55021E-13
 -1       396-1.15475E+05-1.08427E+05-4.47805E+04 1.37263E+04 6.82437E-15-1.42422E-13
 -1       397-1.11603E+05-1.07206E+05-4.37618E+04 8.43210E+02 2.80810E-14-9.14496E-14
 -1       398-1.07172E+05-9.64981E+04-4.07341E+04 3.95212E+03-4.06385E-14 8.79568E-15
 -1       399-1.00189E+05-9.44714E+04-3.89321E+04-2.75638E+03 2.13997E-14 4.98287E-14
 -3
    1PSTEP                         3           1           1          
  100CL  101 1.000000000         397                     0    1           1
 -4  TOSTRAIN    6    1
 -5  EXX         1    4    1    1
 -5  EYY         1    4    2    2
 -5  EZZ         1    4    3    3
 -5  EXY         1    4    1    2
 -5  EYZ         1    4    2    3
 -5  EZX         1    4    3    1
 -1         1 2.14625E-05 2.74607E-08 0.00000E+00 2.32208E-05-6.17160E-24-2.20224E-24
 -1         2-9.29635E-06-9.57977E-06 0.00000E+00 6.45595E-07 2.32893E-22-9.11303E-24
 -1         3 1.72365E-06-8.04727E-06 0.00000E+00 5.83089E-06-1.26175E-22-5.68357E-24
 -1         4-3.84023E-06-2.58670E-06 0.00000E+00-8.50395E-08 2.54402E-22 3.14739E-22
 -1         5-2.44485E-06-2.46503E-06 0.00000E+00-1.42957E-08-8.89386E-22 1.19683E-22
 -1         6-2.50745E-06-2.44585E-06 0.00000E+00 3.16235E-09 1.01290E-21 3.25726E-22
 -1         8-1.16320E-05-8.58320E-06 0.00000E+00 1.23248E-05 2.21781E-23-3.24719E-23
 -1        10-2.08038E-06-2.51978E-06 0.00000E+00-2.28782E-07-4.63994E-24-1.18690E-23
 -1        11-2.37939E-06-2.40735E-06 0.00000E+00-2.28328E-07-9.99940E-25-4.72812E-24
 -1        12-2.29624E-06-1.05648E-06 0.00000E+00-1.15044E-06-1.12730E-25 2.34356E-24
 -1        13 1.56821E-05-1.35903E-05 0.00000E+00 8.92789E-06-3.93329E-23 1.35986E-24
 -1        14 1.20915E-06-1.15918E-05 0.00000E+00 1.96843E-06-2.35400E-23-1.00508E-23
 -1        15-4.96550E-06-1.13222E-05 0.00000E+00 1.04537E-06-6.13348E-23-9.96418E-24
 -1        16 2.07363E-05-6.79190E-06 0.00000E+00 1.70928E-05-2.71075E-24-1.01792E-24
 -1        17 6.38630E-06-1.32232E-05 0.00000E+00 3.98689E-06 5.41335E-23-1.13653E-23
 -1        18-2.06506E-06-1.18563E-05 0.00000E+00 1.49979E-06-6.56915E-23 6.73316E-24
 -1        19-7.09319E-06-1.09152E-05 0.00000E+00 6.55480E-07 1.04935E-22 1.68413E-24
 -1        20-5.66085E-06-7.38859E-06 0.00000E+00 4.89068E-06 1.79242E-22 2.21161E-25
 -1        21-4.19617E-06-6.39853E-06 0.00000E+00 6.21576E-06 8.73972E-24 1.14282E-23
 -1        22-3.86601E-06-5.34571E-06 0.00000E+00 7.12518E-06-3.41797E-22-3.77769E-23
 -1        23-7.42842E-06-8.24438E-06 0.00000E+00 2.61705E-06-2.24671E-22 7.31735E-24
 -1        24-4.95085E-06-6.49716E-06 0.00000E+00 5.55256E-06 1.07114E-22 8.23129E-24
 -1        25-4.22960E-06-6.02574E-06 0.00000E+00 6.66585E-06-6.11330E-23 2.25526E-23
 -1        26-4.94902E-07-5.57154E-06 0.00000E+00 8.53306E-06-6.86456E-23 5.16831E-23
 -1        27-6.02236E-06-8.44027E-06 0.00000E+00-3.02959E-07 2.73451E-22 2.48888E-24
 -1        28-6.30847E-06-7.23209E-06 0.00000E+00 3.38547E-08 1.91781E-22 1.08927E-22
 -1        29-6.34261E-06-6.29404E-06 0.00000E+00-1.78443E-08-1.20047E-22-1.11043E-23
 -1        30-6.80584E-06-5.25764E-06 0.00000E+00 1.02346E-07-1.52145E-22-1.46585E-23
 -1        31-7.40138E-06-4.11677E-06 0.00000E+00 7.44240E-09-4.87803E-22-1.15654E-22
 -1        32-7.24736E-06-3.24428E-06 0.00000E+00 3.16510E-08-6.80396E-22 1.11498E-22
 -1        33-6.08577E-06-2.48453E-06 0.00000E+00-2.93638E-08 2.97067E-22 2.77743E-22
 -1        34-2.79257E-06-9.35535E-06 0.00000E+00 1.29960E-06-7.92881E-23-7.53574E-24
 -1        35-6.14974E-06-8.03599E-06 0.00000E+00-6.79549E-08-1.72090E-22 1.36947E-22
 -1        36-6.21399E-06-6.87493E-06 0.00000E+00 2.77531E-08-4.64171E-22 4.89188E-23
 -1        37-6.59412E-06-5.79922E-06 0.00000E+00-9.37538E-09-8.67809E-23-1.16764E-22
 -1        38-7.04213E-06-4.74647E-06 0.00000E+00 3.95367E-08-3.36946E-22-5.72429E-23
 -1        39-7.39604E-06-3.65676E-06 0.00000E+00 2.47699E-08-5.64021E-23-9.62063E-23
 -1        40-6.73918E-06-2.84610E-06 0.00000E+00-2.77558E-08-6.15841E-22-5.12818E-23
 -1        41-4.97017E-06-2.28164E-06 0.00000E+00-1.19090E-07 1.42840E-21 2.87859E-22
 -1        42-3.35435E-06-2.03504E-06 0.00000E+00 7.90190E-08-1.89887E-22 1.63874E-23
 -1        43-3.06526E-06-2.26362E-06 0.00000E+00-2.27324E-09 1.49562E-21-1.15228E-22
 -1        44-2.71648E-06-2.33252E-06 0.00000E+00 3.03685E-08 1.09447E-21 1.79688E-23
 -1        45-3.58392E-06-2.31288E-06 0.00000E+00-1.19304E-07 1.90167E-22 1.36836E-23
 -1        46-3.19793E-06-2.19811E-06 0.00000E+00 5.02875E-09 9.00374E-22-2.74068E-23
 -1        47-2.89485E-06-2.31770E-06 0.00000E+00 6.86985E-09-6.02545E-23 1.80742E-22
 -1        48-2.58194E-06-2.42645E-06 0.00000E+00-3.00417E-08 4.52482E-22 9.37560E-23
 -1        49-2.45202E-06-2.41636E-06 0.00000E+00 4.59520E-11 6.78081E-22 1.05647E-22
 -1        50-2.44155E-06-2.49514E-06 0.00000E+00-3.26134E-08-3.15587E-22 1.61734E-22
 -1        51-2.44154E-06-2.53641E-06 0.00000E+00-2.37182E-08-1.13874E-23-2.69128E-22
 -1        52-2.43878E-06-2.42282E-06 0.00000E+00 5.14364E-09 2.41447E-21-6.40922E-23
 -1        53-2.43657E-06-2.45489E-06 0.00000E+00-2.19837E-08-6.38771E-22 1.58095E-22
 -1        54-2.43244E-06-2.52438E-06 0.00000E+00-3.06439E-08 5.87975E-22 7.33683E-23
 -1        55-2.44952E-06-2.49249E-06 0.00000E+00-8.43267E-09 1.48192E-22-1.61671E-24
 -1        56-4.01401E-06-2.11459E-06 0.00000E+00 3.98032E-07 5.78339E-22-3.84892E-23
 -1        57-5.25544E-06-1.97086E-06 0.00000E+00 9.72286E-07 6.06557E-22-2.33323E-22
 -1        58-6.90114E-06-1.81933E-06 0.00000E+00 1.88167E-06 6.88245E-22-3.26681E-22
 -1        59-8.73964E-06-1.88313E-06 0.00000E+00 3.35644E-06-3.46982E-22 1.50642E-22
 -1        60-1.08168E-05-1.91802E-06 0.00000E+00 4.97864E-06 1.05585E-22-3.38820E-22
 -1        61-1.28022E-05-2.43434E-06 0.00000E+00 6.93995E-06-1.18495E-22 2.24768E-22
 -1        62-1.44005E-05-3.27057E-06 0.00000E+00 9.08380E-06-3.26775E-22-2.06513E-22
 -1        63-1.55368E-05-4.42027E-06 0.00000E+00 1.11435E-05-1.08912E-22-9.12226E-23
 -1        64-1.56132E-05-5.67567E-06 0.00000E+00 1.25775E-05-2.80099E-22 4.41155E-22
 -1        65-1.45741E-05-6.77006E-06 0.00000E+00 1.29901E-05 1.69892E-23 7.67903E-23
 -1        66-1.24317E-05-7.50869E-06 0.00000E+00 1.20292E-05 7.16391E-23-1.67954E-22
 -1        67-3.27838E-06-2.24962E-06 0.00000E+00 2.12746E-07-1.12867E-22 1.24510E-22
 -1        68-4.60998E-06-2.01036E-06 0.00000E+00 7.01235E-07 4.77047E-22 1.88292E-22
 -1        69-6.04788E-06-1.81157E-06 0.00000E+00 1.40879E-06 1.31850E-21-4.60615E-22
 -1        70-7.89565E-06-1.83290E-06 0.00000E+00 2.57651E-06-3.24238E-22-2.86051E-22
 -1        71-9.80623E-06-1.77675E-06 0.00000E+00 4.11990E-06-6.46538E-22 1.67034E-22
 -1        72-1.18816E-05-2.08185E-06 0.00000E+00 5.94975E-06-6.00862E-22 5.59557E-22
 -1        73-1.36878E-05-2.76959E-06 0.00000E+00 8.00552E-06-2.60650E-22 3.33948E-22
 -1        74-1.50573E-05-3.73872E-06 0.00000E+00 1.01015E-05-3.99238E-23 2.38847E-22
 -1        75-1.55347E-05-5.06391E-06 0.00000E+00 1.19286E-05 1.40769E-22 3.05798E-22
 -1        76-1.50718E-05-6.35069E-06 0.00000E+00 1.29022E-05-2.29942E-22 2.84422E-22
 -1        77-1.35511E-05-7.23365E-06 0.00000E+00 1.27415E-05 1.01071E-22 3.80273E-23
 -1        78-1.15806E-05-7.56360E-06 0.00000E+00 1.18074E-05 5.98281E-24 6.36391E-23
 -1        79-4.93195E-06-1.05625E-05 0.00000E+00 8.29076E-06-5.69699E-24-5.36496E-23
 -1        80-1.76930E-06-7.42619E-06 0.00000E+00 2.61508E-06 4.49700E-24 4.56367E-23
 -1        81-1.50278E-06-3.95919E-06 0.00000E+00-2.31131E-07-4.92987E-25 1.10621E-23
 -1        82-8.51915E-06-1.06126E-05 0.00000E+00 1.08825E-05-4.37307E-23-1.10539E-22
 -1        83-2.44864E-06-9.32297E-06 0.00000E+00 5.14460E-06 5.71569E-23-5.96522E-23
 -1        84-1.03407E-06-5.72249E-06 0.00000E+00 9.15125E-07 8.19446E-24 2.29318E-24
 -1        85-1.81831E-06-3.20316E-06 0.00000E+00-3.54694E-07 3.49538E-24-8.56176E-24
 -1        86-2.72807E-06-2.92909E-06 0.00000E+00 6.56400E-07 3.40487E-24 7.20295E-24
 -1        87-2.85457E-06-2.83940E-06 0.00000E+00 7.54917E-07-3.52366E-25-4.84161E-24
 -1        88-2.60262E-06-2.84019E-06 0.00000E+00 1.45696E-07 1.04752E-24-4.35675E-24
 -1        89-2.45551E-06-2.85149E-06 0.00000E+00 2.57377E-07-9.00893E-24 3.69459E-23
 -1        90-2.84305E-06-2.96310E-06 0.00000E+00 6.72396E-07-4.65465E-25 2.37309E-24
 -1        91-2.74498E-06-2.39091E-06 0.00000E+00 7.24213E-07 1.39368E-24-1.19394E-23
 -1        92-2.43335E-06-2.36961E-06 0.00000E+00 8.18142E-08-3.65564E-24-1.89827E-24
 -1        93-2.16991E-06-2.60566E-06 0.00000E+00-3.34874E-07 3.62704E-25-9.21162E-25
 -1        94-2.02409E-06-2.33286E-06 0.00000E+00-4.72984E-07-1.04996E-24-1.73919E-24
 -1        95-1.27262E-06-3.09449E-06 0.00000E+00-6.25927E-07-7.24067E-25-5.10747E-26
 -1        96-2.38120E-06-2.35193E-06 0.00000E+00-2.74817E-07-1.29527E-24-8.24285E-26
 -1        97-1.98129E-06-2.46313E-06 0.00000E+00-3.84980E-07 2.71973E-25-1.19499E-24
 -1        98-1.86688E-06-2.56817E-06 0.00000E+00-6.34671E-07-3.60066E-25-3.59597E-26
 -1        99-9.76347E-07-2.78240E-06 0.00000E+00-7.25639E-07-1.67250E-25-1.70345E-24
 -1       100-6.55085E-06 3.15043E-10 0.00000E+00 1.08091E-06 4.25089E-25 8.14379E-25
 -1       101-8.09228E-06-1.39657E-07 0.00000E+00 2.99212E-06-6.05911E-25-5.51051E-24
 -1       102-1.20935E-05 1.46994E-09 0.00000E+00 5.63999E-06-4.43604E-24-6.37677E-24
 -1       103-1.68269E-05 1.40389E-07 0.00000E+00 6.92791E-06-1.13361E-24-1.34957E-24
 -1       104-1.95363E-05-7.53201E-10 0.00000E+00 7.05495E-06-3.21642E-24-8.84958E-24
 -1       105-2.05129E-05-2.89065E-09 0.00000E+00 6.87248E-06-2.83121E-24 2.50211E-24
 -1       106-2.01833E-05-2.22471E-09 0.00000E+00 6.65092E-06 1.92350E-23 1.40783E-24
 -1       107-1.88016E-05-1.68945E-09 0.00000E+00 6.55680E-06 8.69185E-24-5.10735E-24
 -1       108-1.64411E-05 7.22277E-10 0.00000E+00 6.83178E-06-8.97203E-24-1.06705E-25
 -1       109-1.33423E-05 2.07164E-08 0.00000E+00 8.00605E-06-1.89441E-24-1.09892E-23
 -1       110-9.99671E-06 1.70521E-08 0.00000E+00 1.02385E-05-9.55235E-24-2.58933E-24
 -1       111-5.01270E-06 2.17839E-08 0.00000E+00-2.83293E-07-1.67232E-25-2.75079E-26
 -1       112-7.41930E-06-1.77037E-10 0.00000E+00 2.04072E-06-5.29493E-25-9.19493E-25
 -1       113-9.79402E-06 6.56534E-09 0.00000E+00 4.26235E-06 6.36764E-25 7.86709E-24
 -1       114-1.43791E-05-4.11033E-09 0.00000E+00 6.45143E-06 3.47184E-25 1.25663E-23
 -1       115-1.82274E-05 7.32946E-11 0.00000E+00 6.96586E-06-6.07837E-24-3.35271E-24
 -1       116-2.01173E-05-3.10567E-09 0.00000E+00 7.00585E-06 9.84700E-24 7.51021E-24
 -1       117-2.04713E-05-2.95464E-09 0.00000E+00 6.73912E-06 3.14550E-24-5.37444E-25
 -1       118-1.96029E-05-2.80872E-09 0.00000E+00 6.56783E-06-7.60701E-24-6.04177E-25
 -1       119-1.77294E-05-1.55493E-09 0.00000E+00 6.65098E-06 4.38839E-24 5.30594E-24
 -1       120-1.49594E-05 3.03571E-09 0.00000E+00 7.33406E-06 4.67841E-24 7.04166E-24
 -1       121-1.22729E-05-1.72809E-08 0.00000E+00 8.84000E-06-2.11026E-24 3.49156E-24
 -1       122-4.66217E-06-2.83170E-08 0.00000E+00 1.36851E-05 1.46917E-24-1.55093E-25
 -1       123-1.41528E-05-3.71021E-06 0.00000E+00 7.45845E-06 1.65277E-22 1.19573E-22
 -1       124-9.47212E-06-5.32960E-06 0.00000E+00 5.55862E-06-3.97369E-24 9.07005E-23
 -1       125-4.39567E-06-7.07737E-06 0.00000E+00 8.13413E-06 3.24402E-23-3.23827E-24
 -1       126-4.64802E-06-2.26353E-06 0.00000E+00 9.87315E-08 7.06405E-23 5.52491E-23
 -1       127-5.75393E-06-5.52333E-06 0.00000E+00 5.98661E-06-1.08619E-23 1.03106E-23
 -1       128-1.66619E-05-2.08240E-06 0.00000E+00 7.52104E-06-1.70715E-23 7.98026E-23
 -1       129-3.84764E-06-2.43046E-06 0.00000E+00-1.35121E-07-7.60958E-22-2.16994E-23
 -1       130-8.99069E-06-6.04863E-06 0.00000E+00 4.74548E-06-7.45696E-23-1.33155E-22
 -1       131-1.58222E-05-1.24280E-06 0.00000E+00 6.83739E-06 6.07657E-23 1.64798E-23
 -1       132-1.13214E-05-2.85603E-06 0.00000E+00 6.44484E-06 6.60928E-23 6.09494E-23
 -1       133-1.22471E-05-5.34190E-06 0.00000E+00 7.76841E-06-1.20160E-22-3.84453E-22
 -1       134-1.84972E-05-3.90261E-07 0.00000E+00 6.89470E-06 5.13642E-23 2.61964E-24
 -1       135-7.09545E-06-3.02037E-06 0.00000E+00 1.95308E-06-1.02359E-21-2.56780E-23
 -1       136-7.79673E-06-4.05258E-06 0.00000E+00 2.91106E-06 7.35007E-23 1.45294E-22
 -1       137-7.58249E-06-5.83403E-06 0.00000E+00 2.42962E-06 1.24321E-22 4.10291E-23
 -1       138-7.33930E-06-6.74771E-06 0.00000E+00 2.49360E-06-2.13707E-22 9.87270E-23
 -1       139-3.21204E-06-2.25526E-06 0.00000E+00-8.02212E-08-3.93416E-22-1.76528E-22
 -1       140-3.50551E-06-2.24266E-06 0.00000E+00-8.19708E-08-2.93136E-22 1.23529E-22
 -1       141-3.75542E-06-2.51079E-06 0.00000E+00-5.73287E-08-1.02009E-22-8.79970E-23
 -1       142-3.18896E-06-1.86509E-06 0.00000E+00 9.53349E-08 5.71440E-25 1.34458E-24
 -1       143-4.98812E-06-1.61622E-06 0.00000E+00 1.06903E-06 5.57099E-25 2.11269E-25
 -1       144-4.01449E-06-2.98687E-06 0.00000E+00 1.24612E-06-4.43153E-24 2.23025E-24
 -1       145-3.02654E-06-2.22302E-06 0.00000E+00 1.07238E-07-1.49231E-24-5.07948E-24
 -1       146-9.01942E-06-6.12522E-06 0.00000E+00 4.85397E-06 8.69834E-23 9.27276E-23
 -1       147-7.10369E-06-5.97714E-06 0.00000E+00 5.16246E-06-1.15672E-22-2.78393E-23
 -1       148-6.69618E-06-7.25149E-06 0.00000E+00 3.18477E-06-5.16129E-23-1.06672E-23
 -1       149-5.00978E-06-2.16484E-06 0.00000E+00 5.07534E-07 5.27797E-22-2.06576E-22
 -1       150-6.05764E-06-2.67024E-06 0.00000E+00 2.17766E-07 1.87050E-22 1.97244E-22
 -1       151-6.30817E-06-2.43399E-06 0.00000E+00 1.17051E-06 3.88289E-22 2.72227E-23
 -1       152-1.07638E-05-2.56839E-06 0.00000E+00 6.20275E-06-7.40826E-24 3.02162E-23
 -1       153-5.95903E-06-3.44285E-06 0.00000E+00 3.59317E-06-2.38376E-24 3.64038E-24
 -1       154-1.16850E-05-2.16432E-06 0.00000E+00 7.37864E-06 2.61939E-23-6.75635E-24
 -1       155-8.86005E-06-2.95267E-06 0.00000E+00 9.15739E-06-4.27149E-24-1.55885E-23
 -1       156-4.96591E-06-6.36579E-06 0.00000E+00 6.93510E-06-3.87628E-23-1.61969E-23
 -1       157-8.83742E-06-3.94459E-06 0.00000E+00 6.04589E-06-2.74468E-23-2.94777E-23
 -1       158-8.32368E-06-4.12134E-06 0.00000E+00 7.28701E-06-6.96273E-24-7.94449E-24
 -1       159-1.04274E-05-3.95776E-06 0.00000E+00 6.10438E-06 5.63468E-23 2.26922E-23
 -1       160-1.22357E-05-4.10889E-06 0.00000E+00 6.54641E-06-1.72040E-23-1.21176E-22
 -1       161-1.49184E-05-2.38691E-06 0.00000E+00 6.95044E-06 1.48950E-22 5.20737E-23
 -1       162-1.38948E-05-1.87419E-06 0.00000E+00 6.73264E-06 4.92384E-23 2.62862E-23
 -1       163-1.30307E-05-2.97162E-06 0.00000E+00 6.59436E-06 2.25332E-23 4.63191E-23
 -1       164-1.04860E-05-4.88612E-06 0.00000E+00 6.23774E-06-3.20768E-22-1.52643E-22
 -1       165-8.89866E-06-4.44458E-06 0.00000E+00 4.46107E-06-2.86656E-22 2.94592E-22
 -1       166-1.73451E-05-3.41252E-07 0.00000E+00 6.82552E-06-2.24763E-23 1.97800E-23
 -1       167-1.50570E-05-8.77033E-07 0.00000E+00 6.96872E-06 5.41341E-24 8.61149E-24
 -1       168-1.74953E-05-6.86540E-07 0.00000E+00 6.89233E-06 3.39544E-23-2.11555E-23
 -1       169-1.95864E-05 3.03544E-08 0.00000E+00 6.81151E-06 2.64072E-25 1.11347E-24
 -1       170-1.89139E-05-5.13344E-08 0.00000E+00 6.78267E-06-3.50146E-23 6.66765E-24
 -1       171-1.41223E-05-4.70415E-06 0.00000E+00 8.53174E-06-7.38203E-24 7.10513E-23
 -1       172-1.59658E-05-2.74890E-06 0.00000E+00 7.76432E-06 6.18537E-23-5.95455E-24
 -1       173-1.46782E-05-4.74177E-06 0.00000E+00 9.19951E-06 1.06449E-22 4.80764E-23
 -1       174-1.50439E-05-4.46281E-06 0.00000E+00 9.46772E-06-1.10153E-22-1.39828E-22
 -1       175-1.78125E-05-9.66729E-07 0.00000E+00 7.08089E-06-2.88577E-23-5.20319E-23
 -1       176-1.71199E-05-8.03408E-07 0.00000E+00 6.81221E-06 1.45581E-23-1.46349E-23
 -1       177-1.88735E-05-1.48762E-07 0.00000E+00 6.82471E-06 1.38741E-24-2.16363E-23
 -1       178-1.29395E-05-4.82331E-06 0.00000E+00 7.67508E-06-1.34137E-22-1.30164E-22
 -1       179-1.34931E-05-5.18183E-06 0.00000E+00 9.23570E-06 1.71085E-22 1.83191E-22
 -1       180-1.39891E-05-5.30143E-06 0.00000E+00 9.46484E-06 3.98355E-23 1.05410E-22
 -1       181-1.05488E-05-5.67677E-06 0.00000E+00 6.31977E-06 2.86084E-23-1.63485E-22
 -1       182-1.19575E-05-5.01444E-06 0.00000E+00 7.69084E-06 5.91250E-23-2.08506E-22
 -1       183-3.68363E-06-5.84264E-06 0.00000E+00 4.93259E-06-1.71101E-22 3.58048E-23
 -1       184-7.78184E-06-4.61765E-06 0.00000E+00 5.52125E-06-5.30907E-24-4.68079E-23
 -1       185-1.67944E-05-1.52331E-06 0.00000E+00 7.13061E-06-2.01198E-23-5.42519E-23
 -1       186-3.85663E-06-7.33534E-06 0.00000E+00 6.65110E-06 4.88632E-23-2.76428E-24
 -1       187-3.24656E-06-6.71310E-06 0.00000E+00 6.73404E-06-1.38677E-22-3.83483E-23
 -1       188-1.10459E-05-5.30334E-06 0.00000E+00 6.40297E-06-1.19230E-22-5.23991E-23
 -1       189-1.43317E-06-9.67703E-06 0.00000E+00 8.78314E-06-9.16489E-24 7.24257E-24
 -1       190-3.15091E-06-9.75078E-06 0.00000E+00 5.88497E-06 4.65252E-23-9.25013E-25
 -1       191-4.27133E-06-2.33927E-06 0.00000E+00-9.47565E-09-8.77364E-22-1.69489E-22
 -1       192-5.12615E-06-2.31648E-06 0.00000E+00-1.71265E-08 4.14571E-22-1.85341E-22
 -1       193-3.58899E-06-2.35179E-06 0.00000E+00-4.32942E-08-8.62943E-22-1.89043E-23
 -1       194-3.39517E-06-2.35090E-06 0.00000E+00-1.03355E-07 9.06844E-22-3.63133E-24
 -1       195-3.82147E-06-2.26183E-06 0.00000E+00 1.02465E-07 2.76436E-22-4.73344E-22
 -1       196-1.34367E-05-3.32587E-06 0.00000E+00 7.31290E-06-1.73294E-23 2.30101E-23
 -1       197-3.81308E-06-3.27638E-06 0.00000E+00 1.33016E-05-4.94968E-23-1.94280E-24
 -1       198-7.32456E-06-3.79492E-06 0.00000E+00 1.74521E-06-3.56340E-22-3.52124E-22
 -1       199-7.09512E-06-6.31967E-06 0.00000E+00 1.66284E-06-4.44765E-22 1.77507E-22
 -1       200-3.13697E-06-2.32583E-06 0.00000E+00-2.06120E-08 5.04275E-22-1.20688E-22
 -1       201-3.63253E-06-2.29137E-06 0.00000E+00-1.99540E-07-6.20208E-22 1.06325E-22
 -1       202-5.01914E-06-8.95298E-07 0.00000E+00 5.27636E-07 9.17076E-26-2.77198E-24
 -1       203-3.78436E-06-2.48459E-06 0.00000E+00 6.90012E-07 4.91178E-24 1.70517E-23
 -1       204-2.89537E-06-1.83270E-06 0.00000E+00-3.04820E-07-1.24046E-25-1.75525E-25
 -1       205-2.60838E-06-2.28318E-06 0.00000E+00 4.06519E-09-6.74949E-25-2.86313E-24
 -1       206-6.32988E-06-7.76614E-06 0.00000E+00 1.55528E-06-1.21803E-22 1.01133E-22
 -1       207-6.75774E-06-7.20653E-06 0.00000E+00 3.86171E-06-2.23257E-22 2.03158E-23
 -1       208-4.00380E-06-7.15772E-06 0.00000E+00 4.83668E-06 2.33728E-22 1.09521E-22
 -1       209-6.67096E-06-7.04862E-06 0.00000E+00 1.19262E-06 2.21897E-22-9.95450E-23
 -1       210-7.24778E-06-7.08932E-06 0.00000E+00 2.77090E-06-6.44705E-23-7.95897E-24
 -1       211-8.25741E-06-6.33737E-06 0.00000E+00 3.68377E-06 2.74136E-22-4.22712E-23
 -1       212-9.04156E-06-6.18797E-06 0.00000E+00 4.76725E-06-1.02232E-22-8.23217E-24
 -1       213-7.84020E-06-6.75007E-06 0.00000E+00 3.91573E-06 9.87828E-23-2.85922E-22
 -1       214-9.21190E-06-5.87983E-06 0.00000E+00 5.19052E-06-2.35439E-22-1.86361E-22
 -1       215-8.42270E-06-5.74221E-06 0.00000E+00 5.25546E-06 1.58580E-22 1.40293E-22
 -1       216-4.82731E-06-2.25101E-06 0.00000E+00 3.03447E-07 3.32317E-22 2.19595E-22
 -1       217-5.61832E-06-2.25145E-06 0.00000E+00 8.34528E-07-4.56576E-22 3.94327E-22
 -1       218-6.06257E-06-2.59440E-06 0.00000E+00 6.84476E-07-5.47831E-22-5.57743E-22
 -1       219-5.36536E-06-2.46089E-06 0.00000E+00 2.00368E-07 6.21581E-22-5.50265E-23
 -1       220-5.15180E-06-2.05554E-06 0.00000E+00 7.46865E-07 2.76627E-22-3.43772E-22
 -1       221-6.50545E-06-2.12237E-06 0.00000E+00 1.57927E-06-2.97242E-23 7.01245E-23
 -1       222-7.82565E-06-2.43222E-06 0.00000E+00 2.68268E-06 4.63138E-22-9.53117E-23
 -1       223-6.76179E-06-2.72308E-06 0.00000E+00 1.56047E-06 7.16744E-22 5.92168E-23
 -1       224-7.02759E-06-3.19541E-06 0.00000E+00 9.64179E-07 2.73046E-22-1.04029E-22
 -1       225-6.69725E-06-2.95007E-06 0.00000E+00 1.45999E-07 6.70158E-22-6.12496E-23
 -1       226-2.97451E-06-3.04172E-06 0.00000E+00 5.40883E-07 2.91605E-24 2.03065E-23
 -1       227-4.75971E-06-3.06006E-06 0.00000E+00 2.24878E-06-9.07998E-24-2.15271E-23
 -1       228-3.94188E-06-4.35372E-06 0.00000E+00 2.14982E-06-9.24629E-24-1.47383E-23
 -1       229-6.18765E-06-1.48890E-06 0.00000E+00 2.20897E-06 2.93247E-24 1.06461E-23
 -1       230-9.29273E-06-1.72111E-06 0.00000E+00 4.72575E-06-2.10219E-24 2.40242E-24
 -1       231-1.39250E-05-1.09462E-06 0.00000E+00 6.51107E-06-2.93815E-24-2.83571E-23
 -1       232-8.19010E-06-3.12968E-06 0.00000E+00 4.97527E-06-7.12004E-24 4.36489E-23
 -1       233-6.68228E-06-5.31308E-06 0.00000E+00 4.92988E-06-2.39793E-23 8.39380E-25
 -1       234-1.14779E-05-2.55071E-06 0.00000E+00 6.84757E-06 2.53704E-23-6.94733E-23
 -1       235-1.00885E-05-3.02189E-06 0.00000E+00 7.37551E-06 3.85811E-23 7.38453E-24
 -1       236-8.52567E-06-4.04998E-06 0.00000E+00 6.65240E-06 3.75060E-23 6.42442E-23
 -1       237-1.01476E-05-3.41049E-06 0.00000E+00 6.30258E-06-7.97753E-24-2.49532E-23
 -1       238-1.24819E-05-1.18215E-06 0.00000E+00 7.75463E-06 5.92580E-25-9.04373E-24
 -1       239-1.11780E-05-1.16677E-06 0.00000E+00 8.69551E-06 5.46976E-24 1.63875E-24
 -1       240-8.56432E-06-3.70746E-06 0.00000E+00 8.25448E-06-2.11353E-23-1.73383E-23
 -1       241-6.37907E-06-4.99216E-06 0.00000E+00 8.88766E-06-1.47935E-23-1.76778E-23
 -1       242-4.73525E-06-6.62745E-06 0.00000E+00 7.54643E-06 6.85379E-23-2.97709E-23
 -1       243-6.60892E-06-5.24845E-06 0.00000E+00 7.16303E-06 1.64230E-23 2.47724E-23
 -1       244-5.22886E-06-5.93347E-06 0.00000E+00 6.44694E-06 1.61157E-24-6.91379E-25
 -1       245-7.27067E-06-4.75048E-06 0.00000E+00 6.01717E-06-3.87448E-24-1.34340E-23
 -1       246-1.08794E-05-3.35251E-06 0.00000E+00 6.23459E-06-6.56815E-23-3.01200E-23
 -1       247-1.18121E-05-3.45323E-06 0.00000E+00 6.35965E-06-1.84652E-22 2.70429E-23
 -1       248-1.34726E-05-2.38590E-06 0.00000E+00 6.62269E-06 1.12066E-22-1.35356E-22
 -1       249-1.27251E-05-2.35572E-06 0.00000E+00 6.59891E-06-1.06939E-22 7.74131E-23
 -1       250-9.95334E-06-4.64869E-06 0.00000E+00 5.84108E-06 2.46639E-23 6.96345E-23
 -1       251-1.09086E-05-4.69850E-06 0.00000E+00 6.08506E-06-2.18353E-23 1.08555E-22
 -1       252-1.25971E-05-3.55579E-06 0.00000E+00 6.54369E-06 9.44389E-23 2.84657E-23
 -1       253-1.32359E-05-3.91493E-06 0.00000E+00 7.00462E-06 1.99325E-22 7.80199E-23
 -1       254-1.44675E-05-3.05407E-06 0.00000E+00 7.17556E-06-9.63417E-23-2.70609E-23
 -1       255-1.40604E-05-2.67546E-06 0.00000E+00 6.76960E-06 1.30576E-22-1.23274E-22
 -1       256-1.53589E-05-1.79360E-06 0.00000E+00 6.85754E-06-2.70385E-23-1.79663E-22
 -1       257-1.49472E-05-1.56395E-06 0.00000E+00 6.77700E-06-1.02232E-22 2.26194E-23
 -1       258-7.38435E-06-4.68120E-06 0.00000E+00 1.52865E-06-1.77548E-22 7.38885E-23
 -1       259-8.31998E-06-4.17054E-06 0.00000E+00 3.64965E-06 1.25353E-22 9.78386E-23
 -1       260-8.30277E-06-5.19826E-06 0.00000E+00 3.53817E-06 1.74506E-22 1.11555E-22
 -1       261-7.10926E-06-5.50289E-06 0.00000E+00 1.26343E-06 7.84157E-23-6.58186E-23
 -1       262-8.40407E-06-2.95741E-06 0.00000E+00 3.22658E-06-5.26461E-22-1.18039E-22
 -1       263-9.97056E-06-3.32897E-06 0.00000E+00 4.87411E-06-8.23822E-22 5.12197E-22
 -1       264-1.16759E-05-3.77265E-06 0.00000E+00 6.67845E-06 6.95655E-23-8.59263E-23
 -1       265-9.73892E-06-4.62297E-06 0.00000E+00 5.35252E-06-1.75412E-23 3.20491E-22
 -1       266-9.78051E-06-5.50753E-06 0.00000E+00 5.52639E-06-3.05434E-22 5.57274E-23
 -1       267-8.17682E-06-5.97071E-06 0.00000E+00 3.66325E-06-3.77656E-22-4.14955E-23
 -1       268-1.44649E-05-1.37685E-06 0.00000E+00 6.80224E-06-4.25187E-23 9.73172E-23
 -1       269-1.34822E-05-1.47901E-06 0.00000E+00 7.11246E-06 1.12225E-22 3.91490E-24
 -1       270-1.65798E-05-7.51656E-07 0.00000E+00 6.82139E-06 1.86135E-23-2.45722E-23
 -1       271-1.63077E-05-6.41102E-07 0.00000E+00 6.87014E-06-7.44524E-24-4.98417E-23
 -1       272-1.80674E-05-1.05986E-07 0.00000E+00 6.70356E-06-2.48729E-23 2.24369E-23
 -1       273-1.57362E-05-4.70901E-07 0.00000E+00 6.94070E-06 7.09622E-24 3.91461E-24
 -1       274-1.67365E-05-9.75099E-07 0.00000E+00 6.84133E-06 8.59977E-23 1.24307E-22
 -1       275-1.81857E-05-3.13932E-07 0.00000E+00 6.85046E-06-6.27056E-23-9.50977E-24
 -1       276-1.82385E-05-2.11988E-07 0.00000E+00 6.77688E-06-2.21632E-25 9.09597E-24
 -1       277-1.80709E-05-5.56136E-07 0.00000E+00 6.87512E-06-1.71105E-23-5.25083E-23
 -1       278-1.90165E-05-1.43977E-07 0.00000E+00 6.87732E-06 2.91048E-24 1.42923E-23
 -1       279-1.93644E-05-2.35360E-08 0.00000E+00 6.78352E-06-2.98726E-23-9.30655E-24
 -1       280-2.00151E-05 1.09708E-07 0.00000E+00 6.88967E-06 3.21236E-25-1.66020E-23
 -1       281-1.95388E-05 5.59206E-08 0.00000E+00 6.72982E-06-1.46743E-23 1.11203E-23
 -1       282-1.23396E-05-6.44602E-06 0.00000E+00 9.99018E-06-1.23222E-23 6.86584E-23
 -1       283-1.44763E-05-4.51469E-06 0.00000E+00 9.09057E-06-3.37839E-23-8.00052E-23
 -1       284-1.36833E-05-5.92907E-06 0.00000E+00 1.06930E-05-1.35276E-23 1.34283E-22
 -1       285-1.53595E-05-3.21865E-06 0.00000E+00 7.96512E-06 1.56742E-23-1.35988E-22
 -1       286-1.62538E-05-2.42146E-06 0.00000E+00 7.69993E-06 3.99702E-23-6.23049E-23
 -1       287-1.54519E-05-3.55251E-06 0.00000E+00 8.51715E-06-2.68206E-23 1.63038E-22
 -1       288-1.50829E-05-3.23330E-06 0.00000E+00 7.65224E-06 6.91340E-23 8.81298E-24
 -1       289-1.43522E-05-4.18714E-06 0.00000E+00 8.26626E-06 8.23257E-23-1.80496E-22
 -1       290-1.48090E-05-4.58662E-06 0.00000E+00 9.36862E-06 5.57814E-23-8.50325E-23
 -1       291-1.45226E-05-5.67280E-06 0.00000E+00 1.09567E-05-6.29969E-23 2.93040E-22
 -1       292-1.90869E-05-3.18059E-08 0.00000E+00 6.99424E-06-6.70250E-25 8.19461E-24
 -1       293-1.81143E-05-4.84974E-07 0.00000E+00 6.84665E-06-1.77983E-23-2.59126E-23
 -1       294-1.68498E-05-3.43937E-07 0.00000E+00 6.86023E-06-4.30845E-24-8.30187E-24
 -1       295-1.93116E-05-8.20310E-08 0.00000E+00 6.83735E-06-1.04465E-24 2.27508E-25
 -1       296-1.81408E-05-6.83041E-07 0.00000E+00 6.97474E-06-2.67259E-23-3.33926E-23
 -1       297-1.82853E-05-5.96574E-07 0.00000E+00 6.98099E-06 3.04129E-23 1.26638E-23
 -1       298-1.71962E-05-1.51381E-06 0.00000E+00 7.29188E-06 1.17902E-22 5.52210E-23
 -1       299-1.68119E-05-1.52004E-06 0.00000E+00 7.13377E-06-2.47482E-23-7.66163E-23
 -1       300-1.35073E-05-4.32395E-06 0.00000E+00 7.57844E-06-4.91938E-23-1.34262E-22
 -1       301-1.34212E-05-5.00046E-06 0.00000E+00 8.49533E-06-1.87262E-22 2.80032E-22
 -1       302-1.42887E-05-5.07252E-06 0.00000E+00 9.36177E-06 7.42003E-24 7.40831E-23
 -1       303-1.25917E-05-5.15821E-06 0.00000E+00 7.73787E-06 8.57735E-24-2.76412E-22
 -1       304-1.28162E-05-5.21539E-06 0.00000E+00 8.44684E-06-4.90488E-23 2.56421E-22
 -1       305-1.37234E-05-5.26339E-06 0.00000E+00 9.37192E-06-4.66769E-22-1.56527E-23
 -1       306-1.43714E-05-4.76708E-06 0.00000E+00 1.01069E-05-4.49026E-24 5.14497E-22
 -1       307-1.46089E-05-5.44135E-06 0.00000E+00 1.08942E-05-1.64890E-22 2.52544E-23
 -1       308-1.14216E-05-5.47423E-06 0.00000E+00 7.05629E-06-1.05004E-22-3.04531E-23
 -1       309-1.12636E-05-5.35330E-06 0.00000E+00 6.99926E-06-3.18739E-22-7.63990E-23
 -1       310-1.27552E-05-5.03470E-06 0.00000E+00 8.45388E-06 7.50670E-23-6.95212E-23
 -1       311-9.77905E-06-5.84319E-06 0.00000E+00 5.57055E-06 3.17894E-22 1.60435E-22
 -1       312-1.12616E-05-4.90655E-06 0.00000E+00 6.97707E-06-3.06434E-23-4.21734E-22
 -1       313-1.31540E-05-4.20004E-06 0.00000E+00 8.40754E-06-2.57694E-22 1.59969E-22
 -1       314-9.26875E-06-4.30034E-06 0.00000E+00 5.91131E-06 1.07839E-23-1.70679E-23
 -1       315-7.25176E-06-5.14738E-06 0.00000E+00 5.42922E-06-2.53370E-22 3.93432E-23
 -1       316-8.41724E-06-4.22850E-06 0.00000E+00 5.73922E-06 5.08219E-23 7.70244E-23
 -1       317-4.89505E-06-5.79813E-06 0.00000E+00 5.51727E-06-3.55487E-23-1.00445E-23
 -1       318-6.39897E-06-5.09026E-06 0.00000E+00 5.33686E-06-1.83734E-22-2.17257E-23
 -1       319-6.90661E-07-6.81334E-06 0.00000E+00 5.53662E-06 6.45791E-23-2.88894E-24
 -1       320-1.58881E-05-1.96158E-06 0.00000E+00 7.04899E-06 8.01845E-23 9.30361E-23
 -1       321-1.71187E-05-1.07141E-06 0.00000E+00 6.97687E-06-3.46684E-23-4.96637E-23
 -1       322-1.62870E-05-2.10895E-06 0.00000E+00 7.41284E-06 7.96892E-23 5.78403E-23
 -1       323-1.73145E-05-1.27052E-06 0.00000E+00 7.12742E-06 1.10747E-22-2.58285E-24
 -1       324-3.72385E-06-6.21254E-06 0.00000E+00 6.03865E-06-1.12053E-23-1.70590E-23
 -1       325-3.53737E-06-6.46811E-06 0.00000E+00 6.61620E-06-5.10896E-23 7.02959E-24
 -1       326-4.33372E-06-6.55992E-06 0.00000E+00 6.84830E-06 1.39444E-22-6.05146E-24
 -1       327-3.99164E-06-7.38124E-06 0.00000E+00 7.26474E-06 1.30265E-23-2.82357E-24
 -1       328-3.86394E-06-6.98991E-06 0.00000E+00 6.55975E-06-9.07708E-23-3.59874E-23
 -1       329-4.10920E-06-6.91340E-06 0.00000E+00 6.40849E-06 5.60270E-24-1.06030E-23
 -1       330-1.08206E-05-5.58279E-06 0.00000E+00 6.35113E-06-1.46193E-22-3.81030E-22
 -1       331-1.00487E-05-5.72123E-06 0.00000E+00 5.65418E-06 2.75621E-22 8.07746E-23
 -1       332-1.20409E-05-5.03165E-06 0.00000E+00 7.04648E-06-2.65168E-22-4.49402E-23
 -1       333-1.16124E-05-4.79134E-06 0.00000E+00 6.46362E-06 1.34689E-22 1.96141E-22
 -1       334-3.83654E-06-8.19288E-06 0.00000E+00 6.20591E-06-2.58580E-23 5.88380E-24
 -1       335-4.53037E-06-8.86253E-06 0.00000E+00 5.22297E-06 6.49684E-23-3.80788E-24
 -1       336-3.49734E-06-8.05090E-06 0.00000E+00 8.33509E-06 6.70135E-24-2.05687E-23
 -1       337-2.47368E-06-9.85030E-06 0.00000E+00 7.22671E-06-3.05324E-23-1.03468E-25
 -1       338-1.02804E-06-1.10707E-05 0.00000E+00 6.09401E-06 8.91486E-24 1.54811E-24
 -1       339-4.31292E-06-1.03488E-05 0.00000E+00 3.53896E-06 1.18915E-22-5.53659E-24
 -1       340-4.02818E-06-2.35677E-06 0.00000E+00-2.82084E-08-4.34468E-22-1.30334E-22
 -1       341-4.72096E-06-2.28567E-06 0.00000E+00 1.79973E-09-6.04486E-22 9.29212E-23
 -1       342-4.50046E-06-2.31540E-06 0.00000E+00-2.04641E-08 6.45270E-22-1.77096E-22
 -1       343-3.76175E-06-2.41362E-06 0.00000E+00-5.70137E-08-7.44480E-23-2.81680E-22
 -1       344-4.46462E-06-2.31368E-06 0.00000E+00 4.42371E-08 7.90716E-22-1.89552E-23
 -1       345-5.62134E-06-2.51354E-06 0.00000E+00 5.67647E-08-3.99734E-22-1.62417E-22
 -1       346-5.63426E-06-2.35758E-06 0.00000E+00-5.27044E-08 1.13866E-22 2.99318E-22
 -1       347-3.80519E-06-2.60253E-06 0.00000E+00-1.50985E-07-2.36410E-22 8.06982E-23
 -1       348-3.81745E-06-2.34765E-06 0.00000E+00-5.47373E-08-6.54700E-22-1.34699E-22
 -1       349-3.49429E-06-2.34602E-06 0.00000E+00-7.32327E-08-1.88649E-22-1.23498E-22
 -1       350-4.11697E-06-2.28146E-06 0.00000E+00 3.51182E-08 2.08392E-22 1.87232E-22
 -1       351-3.50185E-06-2.32675E-06 0.00000E+00-8.40534E-08 4.25757E-22-7.00552E-23
 -1       352-3.30581E-06-2.31569E-06 0.00000E+00-8.79856E-08-1.11753E-21 3.84328E-22
 -1       353-2.78061E-06-2.31160E-06 0.00000E+00 2.57510E-08 4.44287E-22-7.71891E-23
 -1       354-2.92439E-06-2.35522E-06 0.00000E+00-3.89155E-08-5.83135E-22 2.99768E-23
 -1       355-3.01362E-06-2.38927E-06 0.00000E+00-3.53383E-08 9.01586E-22 4.49040E-22
 -1       356-3.12776E-06-2.35414E-06 0.00000E+00 5.10555E-08 6.28280E-22-3.17856E-22
 -1       357-3.70673E-06-2.30957E-06 0.00000E+00 2.56365E-08 3.59956E-23-1.86659E-22
 -1       358-3.92433E-06-2.19638E-06 0.00000E+00 2.44499E-07 1.66965E-22 8.47352E-23
 -1       359-4.40600E-06-2.16215E-06 0.00000E+00 3.18086E-07 1.11018E-21-1.27073E-22
 -1       360-1.37227E-05-4.18734E-06 0.00000E+00 7.85889E-06 7.42810E-23-9.63680E-25
 -1       361-1.51345E-05-2.02367E-06 0.00000E+00 6.98374E-06 3.58519E-23 8.38770E-23
 -1       362-9.48920E-06-6.59077E-06 0.00000E+00 7.71908E-06-3.29514E-24 3.92169E-23
 -1       363-1.18647E-05-3.02943E-06 0.00000E+00 6.73746E-06 1.14241E-23-7.93279E-24
 -1       364-6.11416E-06-1.44520E-06 0.00000E+00 1.19983E-05 2.39644E-23-3.18881E-25
 -1       365-7.76062E-06-3.54116E-06 0.00000E+00 1.01493E-05 1.26670E-23-9.46708E-24
 -1       366-1.68885E-06-7.20147E-06 0.00000E+00 1.09088E-05-3.31181E-23 5.94932E-24
 -1       367-2.93546E-06-6.29418E-06 0.00000E+00 1.11515E-05-1.30776E-23-9.63742E-24
 -1       368-7.31400E-06-4.02346E-06 0.00000E+00 9.41138E-07-1.12901E-22 8.68715E-23
 -1       369-7.51546E-06-3.89883E-06 0.00000E+00 2.30623E-06-6.90738E-22-1.16480E-22
 -1       370-7.32923E-06-3.49967E-06 0.00000E+00 1.95757E-06 1.46397E-22-1.26824E-22
 -1       371-6.73485E-06-6.30969E-06 0.00000E+00 8.22496E-07 4.38726E-22 5.55907E-23
 -1       372-7.25766E-06-6.54514E-06 0.00000E+00 2.02145E-06 3.28755E-23 6.64818E-23
 -1       373-7.31921E-06-6.06848E-06 0.00000E+00 2.01756E-06-1.76294E-22-1.10031E-22
 -1       374-2.94497E-06-2.30505E-06 0.00000E+00-1.49531E-08-1.30064E-21 1.39525E-22
 -1       375-3.33156E-06-2.18386E-06 0.00000E+00-4.66872E-08-1.34061E-22-3.88228E-23
 -1       376-3.27838E-06-2.22204E-06 0.00000E+00-2.73058E-08-4.90977E-23 3.74651E-23
 -1       377-3.17295E-06-2.30416E-06 0.00000E+00-5.00967E-08 4.13825E-22-1.38892E-22
 -1       378-3.71626E-06-2.40104E-06 0.00000E+00-1.75728E-07-6.21574E-22 1.75390E-22
 -1       379-3.62893E-06-2.36213E-06 0.00000E+00-1.50795E-07-7.96658E-22 2.32024E-22
 -1       380-3.57998E-06-2.20350E-06 0.00000E+00-1.02511E-07 9.23582E-22 1.57259E-22
 -1       381-3.53679E-06-2.21043E-06 0.00000E+00-7.06692E-08-6.48858E-22-1.00870E-24
 -1       382-2.96499E-06-2.85017E-06 0.00000E+00 3.57230E-07 2.19126E-25-3.73621E-24
 -1       383-4.14281E-06-1.57299E-06 0.00000E+00 3.45057E-07 5.99881E-25-1.29598E-24
 -1       384-5.15184E-06-1.42060E-06 0.00000E+00 9.40421E-07 1.10719E-24 5.35398E-24
 -1       385-3.92165E-06-2.17970E-06 0.00000E+00 6.96380E-07 1.03796E-24-9.61666E-25
 -1       386-2.69846E-06-1.77202E-06 0.00000E+00-7.18851E-07 9.06755E-26-4.10503E-24
 -1       387-5.66735E-06-6.14708E-07 0.00000E+00 7.86554E-07-8.28929E-25 2.83411E-24
 -1       388-6.62942E-06-8.66501E-07 0.00000E+00 2.14197E-06 2.25587E-24-1.53784E-24
 -1       389-3.80702E-06-2.68472E-06 0.00000E+00 9.18279E-07 4.38787E-24-2.66528E-25
 -1       390-4.36009E-06-2.33002E-06 0.00000E+00 9.62348E-07 2.08794E-24 1.56640E-24
 -1       391-3.15564E-06-2.72579E-06 0.00000E+00 5.95243E-07-1.25443E-24 9.32555E-25
 -1       392-2.33399E-06-2.01575E-06 0.00000E+00-4.71508E-07-1.28737E-24 3.74001E-25
 -1       393-2.98146E-06-2.34091E-06 0.00000E+00-1.96135E-07-7.32144E-25 4.32577E-24
 -1       394-2.50328E-06-2.25209E-06 0.00000E+00-1.97386E-07 4.03203E-25-2.02943E-24
 -1       395-3.10244E-06-1.65960E-06 0.00000E+00-4.42777E-08 1.12155E-24 6.20082E-24
 -1       396-2.82779E-06-2.54587E-06 0.00000E+00 5.49053E-07 2.72975E-25-5.69687E-24
 -1       397-2.71366E-06-2.53777E-06 0.00000E+00 3.37284E-08 1.12324E-24-3.65798E-24
 -1       398-2.65753E-06-2.23056E-06 0.00000E+00 1.58085E-07-1.62554E-24 3.51827E-25
 -1       399-2.45029E-06-2.22157E-06 0.00000E+00-1.10255E-07 8.55990E-25 1.99315E-24
 -3
    1PSTEP                         4           1           1          
  100CL  101 1.000000000         397                     0    1           1
 -4  FORC        4    1
 -5  F1          1    2    1    0
 -5  F2          1    2    2    0
 -5  F3          1    2    3    0
 -5  ALL         1    2    0    0    1ALL
 -1         1-5.72765E+07-4.63130E+07 1.09139E-11
 -1         2-1.04252E+07 1.98108E+07 8.54925E-11
 -1         3-6.45487E+06 4.52402E+07-3.05590E-10
 -1         4 4.03313E+05 1.28487E+07-2.23554E-09
 -1         5-2.79397E+06 1.36494E+06-3.50155E-10
 -1         6-3.64695E+06-7.83559E+06-1.70985E-10
 -1         8-5.27684E+06-1.09252E+07 1.45519E-10
 -1        10-6.76456E+06-1.24962E+06 1.81899E-11
 -1        11-2.70415E+06-3.18487E+06-1.42109E-12
 -1        12 7.44701E+06 5.17772E+06-7.27596E-12
 -1        13 1.35408E+06 1.51329E+07-1.09139E-11
 -1        14 9.62390E+05 1.49181E+07-4.36557E-11
 -1        15 6.32654E+05 1.47032E+07 1.30967E-10
 -1        16-2.48638E+06 3.04806E+07-2.45564E-11
 -1        17-1.91964E+06 3.00509E+07-7.27596E-12
 -1        18-1.19822E+06 2.96213E+07-7.27596E-12
 -1        19-1.00322E+06 2.91916E+07-1.16415E-10
 -1        20-2.04862E+07 2.46968E+07-6.91216E-11
 -1        21-1.97904E+07 2.40389E+07-9.09495E-11
 -1        22-1.91647E+07 2.33810E+07 1.05501E-10
 -1        23-4.39543E+07 5.00515E+07 1.30967E-10
 -1        24-4.33203E+07 4.87357E+07-2.91038E-11
 -1        25-4.23862E+07 4.74199E+07 1.52795E-10
 -1        26-4.13306E+07 4.61042E+07-1.41881E-10
 -1        27 4.14418E+06 6.42525E+07 0.00000E+00
 -1        28 3.36023E+06 5.79009E+07-1.16415E-10
 -1        29 3.09730E+06 5.15494E+07 3.92902E-10
 -1        30 7.44625E+06 4.51978E+07 5.82077E-11
 -1        31 4.63867E+06 3.88463E+07-4.65661E-10
 -1        32 5.09907E+06 3.24948E+07-5.52973E-10
 -1        33 1.02633E+06 2.61432E+07 3.16504E-10
 -1        34-1.27439E+07 1.34856E+08-1.16415E-10
 -1        35-1.33935E+07 1.22153E+08 6.40284E-10
 -1        36-1.05708E+07 1.09450E+08 2.61934E-10
 -1        37-1.03491E+07 9.67472E+07 2.61934E-10
 -1        38-1.29866E+07 8.40441E+07 2.09548E-09
 -1        39-1.27649E+07 7.13411E+07 9.89530E-10
 -1        40-5.09967E+06 5.86380E+07-2.05182E-09
 -1        41-3.12606E+06 4.59349E+07-3.48518E-09
 -1        42 2.97330E+04 2.72989E+06-6.38920E-11
 -1        43 1.68467E+04 2.72989E+06-3.49701E-10
 -1        44 2.97328E+04 2.72989E+06 3.21393E-10
 -1        45-2.62972E+05 5.45977E+06 1.58707E-10
 -1        46-2.62985E+05 5.45977E+06-2.33285E-10
 -1        47-2.62973E+05 5.45977E+06 4.54975E-10
 -1        48-2.62985E+05 5.45977E+06-6.01858E-10
 -1        49-5.51817E+06 4.50305E-06 5.74801E-10
 -1        50-5.10458E+06 6.10817E-06 1.03682E-10
 -1        51-4.68731E+06 9.93226E-07-2.98314E-10
 -1        52-1.43054E+07 3.16645E-06 2.11003E-10
 -1        53-1.48251E+07 4.53004E-06-5.67525E-10
 -1        54-1.56688E+07 7.64890E-06 8.22183E-10
 -1        55-1.62561E+07 7.25969E-06 5.38421E-10
 -1        56-1.58597E+06-1.55248E+07-2.29193E-10
 -1        57-1.39359E+06-1.53431E+07 2.54659E-09
 -1        58-7.11367E+05-1.51265E+07 1.35333E-09
 -1        59 2.81177E+06-1.48754E+07-1.45519E-09
 -1        60 1.00161E+06-1.45904E+07 1.45519E-10
 -1        61-1.44301E+06-1.42722E+07 7.85803E-10
 -1        62-3.80411E+06-1.39214E+07-1.45519E-10
 -1        63-4.92350E+06-1.35390E+07 7.27596E-10
 -1        64-5.37107E+06-1.31257E+07 4.07454E-10
 -1        65-5.43946E+06-1.26826E+07-2.91038E-10
 -1        66-6.01850E+06-1.20353E+07 6.98492E-10
 -1        67-9.81313E+06-3.11960E+07-6.54836E-10
 -1        68-1.17235E+07-3.08680E+07 1.19326E-09
 -1        69-1.54839E+07-3.04696E+07-1.30967E-09
 -1        70-2.01091E+07-3.00019E+07-4.07454E-10
 -1        71-2.67741E+07-2.94658E+07-4.65661E-10
 -1        72-2.58046E+07-2.88626E+07-2.09548E-09
 -1        73-2.38105E+07-2.81936E+07-1.16415E-10
 -1        74-2.29758E+07-2.74604E+07 1.74623E-10
 -1        75-2.39908E+07-2.66647E+07-7.56700E-10
 -1        76-2.68715E+07-2.58083E+07 1.74623E-10
 -1        77-2.87515E+07-2.48931E+07-1.16415E-10
 -1        78-2.84220E+07-2.46219E+07 5.82077E-11
 -1        79-6.86838E+06-6.68844E+06-5.82077E-11
 -1        80-8.34683E+06-3.87321E+06 1.01863E-10
 -1        81-9.27581E+06-9.33732E+05-9.45874E-11
 -1        82-2.56609E+07-1.57820E+07 0.00000E+00
 -1        83-2.98033E+07-1.05623E+07-1.16415E-10
 -1        84-3.11713E+07-4.69343E+06-2.91038E-11
 -1        85-3.04801E+07 1.91896E+06-1.45519E-11
 -1        86-4.20395E+06-5.45977E+06 1.63709E-11
 -1        87-4.25599E+06-5.45977E+06-1.63709E-11
 -1        88-5.39801E+06-5.45977E+06 2.50111E-12
 -1        89-1.36405E+07-1.09195E+07 7.27596E-12
 -1        90-1.36405E+07-1.09195E+07-2.91038E-11
 -1        91-1.10534E+07-1.09195E+07-9.32232E-12
 -1        92-1.10534E+07-1.09195E+07-1.59162E-12
 -1        93 6.17616E+04-9.09962E+05-2.27374E-13
 -1        94 5.14680E+04-9.09962E+05 1.36424E-12
 -1        95 6.17616E+04-9.09962E+05 5.68434E-13
 -1        96-1.33817E+05-1.81992E+06 3.18323E-12
 -1        97-1.33817E+05-1.81992E+06-9.09495E-13
 -1        98-1.33817E+05-1.81992E+06-2.27374E-13
 -1        99-1.33817E+05-1.81992E+06-9.09495E-13
 -1       100 3.73056E+07-4.09745E+06 1.45519E-11
 -1       101 4.81982E+07-1.25948E+07 1.45519E-11
 -1       102 6.88184E+07-2.19830E+07-4.36557E-11
 -1       103 9.62123E+07-2.85722E+07-1.45519E-10
 -1       104 1.09650E+08-2.94611E+07 8.73115E-11
 -1       105 1.15313E+08-2.85732E+07 5.82077E-11
 -1       106 1.13864E+08-2.72700E+07-5.82077E-11
 -1       107 1.06728E+08-2.68922E+07-1.16415E-10
 -1       108 9.43599E+07-2.82763E+07-8.73115E-11
 -1       109 7.79259E+07-3.23646E+07 1.01863E-10
 -1       110 5.90676E+07-4.51491E+07 3.27418E-11
 -1       111 5.46920E+07-6.41180E+05 1.45519E-11
 -1       112 7.60321E+07-1.51469E+07 0.00000E+00
 -1       113 1.03276E+08-3.74728E+07 5.82077E-11
 -1       114 1.50646E+08-5.47421E+07 5.82077E-11
 -1       115 1.91778E+08-5.85160E+07-5.82077E-11
 -1       116 2.14373E+08-5.76988E+07-1.16415E-10
 -1       117 2.18392E+08-5.57743E+07 0.00000E+00
 -1       118 2.07887E+08-5.40917E+07 0.00000E+00
 -1       119 1.86777E+08-5.42016E+07 0.00000E+00
 -1       120 1.56606E+08-5.91112E+07-2.91038E-11
 -1       121 1.23170E+08-7.55934E+07-2.91038E-11
 -1       122 4.83550E+07-1.00592E+08-1.45519E-11
 -1       123 9.82457E+06-6.75194E-07 5.23869E-10
 -1       124 7.69915E+06 4.78234E-07 1.16415E-10
 -1       125 2.65985E+06 1.83354E-08 1.23691E-10
 -1       126 4.06978E+06-1.71320E-06 2.14641E-09
 -1       127 2.10869E+06-2.84374E-07-2.32831E-10
 -1       128 7.42162E+06 5.48258E-07 1.74623E-10
 -1       129 8.63513E+05 1.05554E-05-1.58252E-09
 -1       130 1.21687E+07-2.01742E-06-6.40284E-10
 -1       131 6.41096E+06 2.55081E-07 5.82077E-11
 -1       132 5.45877E+06-5.88363E-07 2.32831E-10
 -1       133 4.91334E+06 8.80420E-07 5.82077E-11
 -1       134 3.92111E+06-5.86850E-07 4.65661E-10
 -1       135 1.02306E+07 6.05796E-08-2.93949E-09
 -1       136 1.35150E+07-2.75350E-06-3.02680E-09
 -1       137 1.23257E+07-7.16056E-07-1.16415E-10
 -1       138 9.26088E+06-2.49848E-06 1.74623E-10
 -1       139 7.80989E+05-3.06377E-06-1.81899E-11
 -1       140 1.54779E+05 9.92198E-06 4.21778E-10
 -1       141 1.15062E+06-3.69947E-06-7.53062E-10
 -1       142 1.57149E+06 8.80827E-08-7.27596E-12
 -1       143 2.76555E+06 3.45526E-08 0.00000E+00
 -1       144 4.50140E+06 2.59388E-08 2.91038E-11
 -1       145 1.23523E+05-4.16509E-07 8.86757E-12
 -1       146 9.19782E+06 4.43775E-07-1.16415E-10
 -1       147 7.19164E+06-2.34868E-08 8.73115E-11
 -1       148 1.02372E+07-1.12690E-06-1.74623E-10
 -1       149 5.67428E+06-3.44827E-06 3.97267E-09
 -1       150 6.25287E+06 5.64032E-06 4.77303E-09
 -1       151 8.78751E+06-3.51341E-06 1.86265E-09
 -1       152 7.72206E+06-9.64501E-08 3.78350E-10
 -1       153 6.97291E+06-5.12227E-08-1.16415E-10
 -1       154 5.77030E+06 4.40450E-07 5.82077E-11
 -1       155 3.97283E+06 1.34023E-07 1.01863E-10
 -1       156 2.61527E+06-4.16447E-07 1.45519E-10
 -1       157 3.78255E+06-4.85190E-07 0.00000E+00
 -1       158 3.98330E+06-4.42233E-07 1.89175E-10
 -1       159 5.79179E+06 1.63847E-06 5.52973E-10
 -1       160 7.93829E+06-3.28248E-07-1.74623E-10
 -1       161 7.13848E+06-3.20346E-07-2.61934E-10
 -1       162 6.68260E+06 1.19202E-07 3.49246E-10
 -1       163 7.10541E+06-3.86499E-08-5.23869E-10
 -1       164 1.15096E+07 3.13949E-06-1.22236E-09
 -1       165 1.56524E+07 1.30315E-06-5.82077E-11
 -1       166 6.45604E+06-3.79077E-09 3.78350E-10
 -1       167 6.99955E+06 2.40470E-09 2.32831E-10
 -1       168 5.68669E+06-6.75966E-07 1.45519E-10
 -1       169 5.43675E+06 1.16430E-07 8.73115E-11
 -1       170 5.63733E+06-1.37654E-07 2.03727E-10
 -1       171 8.11064E+06 3.69328E-08-5.82077E-11
 -1       172 7.89993E+06-2.55735E-07-2.32831E-10
 -1       173 8.22294E+06 1.73517E-07-3.49246E-10
 -1       174 8.74568E+06-4.13856E-07 0.00000E+00
 -1       175 5.88925E+06 1.44355E-07 1.16415E-10
 -1       176 7.80901E+06 5.75033E-07-1.16415E-10
 -1       177 6.16214E+06 2.48838E-09 5.82077E-11
 -1       178 7.08617E+06-1.06869E-06-5.82077E-11
 -1       179 6.56805E+06-1.67196E-06 7.27596E-10
 -1       180 6.94915E+06-1.62108E-06 1.16415E-09
 -1       181 7.39196E+06 1.44719E-07 7.56700E-10
 -1       182 7.50722E+06-7.18399E-07 1.74623E-10
 -1       183 2.74077E+06-5.38178E-07-1.16415E-10
 -1       184 4.13113E+06 8.91014E-07-1.16415E-10
 -1       185 6.54147E+06 8.22212E-07-3.20142E-10
 -1       186 1.64920E+06-2.84658E-07 1.74623E-10
 -1       187 1.72800E+06 5.58473E-07-1.67347E-10
 -1       188 7.96879E+06 1.81701E-06 6.98492E-10
 -1       189 2.25965E+06-2.17944E-07 7.27596E-11
 -1       190 1.42989E+06-2.61818E-07 1.81899E-10
 -1       191 1.97664E+06-7.48306E-06-1.30967E-09
 -1       192 2.73043E+06 5.72373E-06 1.55705E-09
 -1       193 2.55912E+06-5.97453E-06 8.76753E-10
 -1       194 1.58043E+06 4.71044E-06-1.19326E-09
 -1       195 3.53529E+06-1.98872E-06 2.09548E-09
 -1       196 8.20728E+06-2.73460E-07 0.00000E+00
 -1       197 3.21332E+06-8.28295E-08 4.36557E-11
 -1       198 9.30429E+06 6.25214E-06-2.56114E-09
 -1       199 6.99490E+06-2.10013E-06 1.16415E-09
 -1       200 1.35432E+05-2.99582E-05 5.47971E-11
 -1       201 1.35432E+05-8.69244E-06-1.18916E-10
 -1       202 2.64202E+06-5.43059E-09-1.45519E-11
 -1       203 2.19768E+06 6.71862E-08-3.63798E-12
 -1       204 1.08083E+05 5.67234E-08 2.50111E-12
 -1       205 1.08083E+05-3.67725E-07 3.41061E-12
 -1       206-2.13571E+07-2.00013E-06 1.16415E-10
 -1       207-1.96030E+07-2.85683E-07 0.00000E+00
 -1       208-1.42372E+07 1.01944E-06 4.65661E-10
 -1       209-1.99198E+07 1.48686E-06-1.04774E-09
 -1       210-2.13456E+07-9.11896E-07 4.65661E-10
 -1       211-1.90370E+07-2.25617E-06 6.98492E-10
 -1       212-1.83641E+07-7.85163E-07-4.65661E-10
 -1       213-1.95915E+07 1.74006E-06-3.49246E-10
 -1       214-1.88066E+07 2.21669E-07 4.65661E-10
 -1       215-1.45594E+07-1.39958E-06 6.98492E-10
 -1       216-1.07439E+07 1.08923E-05-1.16415E-10
 -1       217-1.42823E+07-4.93965E-06-6.69388E-10
 -1       218-1.87048E+07 1.96749E-06 1.10595E-09
 -1       219-1.14185E+07-2.96388E-06-3.98722E-09
 -1       220-1.01692E+07 1.97050E-06-4.71482E-09
 -1       221-1.63674E+07 4.70430E-06-2.03727E-09
 -1       222-2.18731E+07 3.37185E-06 3.95812E-09
 -1       223-2.08304E+07 1.93305E-06-1.74623E-10
 -1       224-2.31401E+07-4.18798E-06 1.28057E-09
 -1       225-1.54890E+07 4.09549E-07-9.31323E-10
 -1       226-8.60665E+06 3.24653E-08-2.91038E-11
 -1       227-1.31023E+07-1.14233E-09 2.91038E-11
 -1       228-1.26626E+07-6.19912E-08 2.91038E-11
 -1       229-9.98514E+06 6.39557E-09 2.91038E-11
 -1       230-1.46990E+07-3.84534E-08 1.16415E-10
 -1       231-1.77689E+07 2.00816E-08 0.00000E+00
 -1       232-1.44834E+07 1.05239E-07-2.91038E-10
 -1       233-1.49127E+07-1.05822E-07 3.49246E-10
 -1       234-1.11696E+07 1.96815E-08-1.16415E-10
 -1       235-9.33595E+06-4.59855E-07-1.45519E-10
 -1       236-7.23495E+06-2.55663E-07-2.91038E-11
 -1       237-8.30295E+06 3.83414E-07 8.73115E-11
 -1       238-1.30272E+07-2.31375E-09-1.16415E-10
 -1       239-9.66274E+06-2.86454E-08-2.91038E-11
 -1       240-8.69826E+06-1.23182E-07 0.00000E+00
 -1       241-7.72666E+06 4.04485E-07-2.91038E-11
 -1       242-5.07950E+06-1.30676E-07-1.01863E-10
 -1       243-6.59726E+06 1.69151E-07-5.82077E-11
 -1       244-4.42009E+06 4.81610E-07-2.91038E-11
 -1       245-5.72863E+06-1.94355E-07 2.91038E-11
 -1       246-1.09258E+07-3.32897E-07-1.74623E-10
 -1       247-1.40470E+07 1.25154E-06-5.23869E-10
 -1       248-1.31175E+07-1.66125E-07 1.16415E-10
 -1       249-1.26955E+07-5.06916E-08 1.16415E-10
 -1       250-1.29354E+07-8.87667E-08 0.00000E+00
 -1       251-1.73230E+07-1.45566E-06-1.16415E-10
 -1       252-1.53042E+07-3.76254E-07-7.56700E-10
 -1       253-1.60350E+07 1.52818E-06 1.16415E-10
 -1       254-1.61345E+07 7.61269E-07 8.14907E-10
 -1       255-1.43747E+07 1.07801E-07 0.00000E+00
 -1       256-1.36796E+07 3.05503E-07 4.07454E-10
 -1       257-1.25554E+07-3.13383E-07 0.00000E+00
 -1       258-3.03240E+07 4.33720E-06-2.79397E-09
 -1       259-3.36882E+07-2.43601E-06 1.62981E-09
 -1       260-3.41959E+07 1.40452E-06 8.14907E-10
 -1       261-2.75171E+07-3.18501E-06-3.49246E-10
 -1       262-2.72888E+07 2.21213E-06 1.86265E-09
 -1       263-2.82490E+07-4.13187E-07 1.28057E-09
 -1       264-2.19480E+07 1.25950E-06-1.39698E-09
 -1       265-2.88350E+07 8.39937E-07-1.97906E-09
 -1       266-2.40999E+07-6.62752E-07-9.31323E-10
 -1       267-2.50260E+07 2.32382E-06 1.16415E-10
 -1       268-1.28731E+07 3.34694E-09-4.65661E-10
 -1       269-1.43030E+07 3.88536E-09-1.16415E-10
 -1       270-1.20969E+07-4.12467E-07-4.65661E-10
 -1       271-1.36952E+07 9.23028E-08-5.82077E-11
 -1       272-1.42776E+07-4.83560E-08-2.32831E-10
 -1       273-1.51251E+07 7.07587E-08-1.16415E-10
 -1       274-1.19959E+07 1.49157E-08 4.07454E-10
 -1       275-1.02199E+07-4.41607E-07-1.74623E-10
 -1       276-1.24041E+07 1.36060E-09-1.16415E-10
 -1       277-9.14002E+06-2.99769E-08 1.16415E-10
 -1       278-8.89563E+06 1.00539E-07-5.82077E-11
 -1       279-1.01452E+07 2.83471E-07-2.91038E-10
 -1       280-1.09994E+07-8.47685E-08 5.82077E-11
 -1       281-1.23295E+07-9.64064E-09 1.74623E-10
 -1       282-1.47892E+07-3.94357E-08-1.16415E-10
 -1       283-1.66923E+07 4.76226E-07-3.49246E-10
 -1       284-1.72400E+07-4.36179E-07-8.14907E-10
 -1       285-1.67133E+07-1.98634E-08 3.49246E-10
 -1       286-1.50331E+07-2.29629E-08-2.32831E-10
 -1       287-1.76519E+07-5.97647E-08 5.82077E-10
 -1       288-1.75985E+07-6.52333E-07-8.14907E-10
 -1       289-1.70432E+07 2.31026E-07 3.49246E-10
 -1       290-1.82598E+07 1.98197E-07 3.49246E-10
 -1       291-1.76251E+07-5.47523E-07 1.16415E-10
 -1       292-1.33733E+07 1.24710E-08 0.00000E+00
 -1       293-1.39728E+07-4.80213E-09 2.32831E-10
 -1       294-1.78072E+07-1.29105E-07 1.16415E-10
 -1       295-1.06758E+07 1.41263E-07-1.16415E-10
 -1       296-9.34841E+06 5.06378E-07 5.82077E-11
 -1       297-1.12753E+07 9.56788E-08 0.00000E+00
 -1       298-1.23584E+07-2.42086E-07 5.82077E-11
 -1       299-1.55802E+07 1.83209E-08 0.00000E+00
 -1       300-1.48700E+07 2.31346E-07-2.32831E-10
 -1       301-1.30318E+07-2.55503E-07-5.23869E-10
 -1       302-1.55201E+07-4.36936E-07-9.31323E-10
 -1       303-1.19040E+07 2.43890E-07-5.82077E-11
 -1       304-1.10577E+07-3.69808E-07-6.40284E-10
 -1       305-1.22395E+07 3.09577E-07-1.16415E-10
 -1       306-1.27326E+07 2.64186E-06-9.89530E-10
 -1       307-1.46876E+07-7.82544E-07-2.32831E-10
 -1       308-1.22033E+07-1.99894E-06-8.73115E-10
 -1       309-1.41785E+07-1.94934E-06 6.98492E-10
 -1       310-1.27939E+07-4.70409E-07-8.14907E-10
 -1       311-1.59053E+07 2.08877E-06-1.51340E-09
 -1       312-1.72074E+07-1.32897E-06 9.31323E-10
 -1       313-1.57901E+07-2.89408E-07-6.98492E-10
 -1       314-9.46722E+06-3.07271E-07 2.91038E-10
 -1       315-9.17855E+06 3.35029E-07-5.82077E-10
 -1       316-7.34594E+06 4.43688E-07-3.78350E-10
 -1       317-4.60936E+06-9.88287E-07 1.74623E-10
 -1       318-7.05727E+06-3.46685E-07 2.32831E-10
 -1       319-5.59857E+06 1.60482E-07 2.18279E-10
 -1       320-1.48093E+07 1.86570E-07-1.16415E-10
 -1       321-1.17215E+07 2.26391E-07-1.74623E-10
 -1       322-1.44444E+07 3.47965E-07-1.16415E-10
 -1       323-1.13566E+07 6.46833E-07-5.82077E-11
 -1       324-3.52824E+06 1.03962E-06 1.60071E-10
 -1       325-3.52891E+06-2.57136E-07-3.63798E-10
 -1       326-3.38308E+06-3.38285E-07 1.01863E-10
 -1       327-3.49994E+06-6.94312E-07-2.91038E-10
 -1       328-3.38375E+06-1.78756E-07 8.73115E-11
 -1       329-3.37787E+06 6.81035E-07-5.82077E-11
 -1       330-1.46238E+07 4.78758E-08 1.39698E-09
 -1       331-1.73894E+07-4.27957E-07-6.98492E-10
 -1       332-1.44857E+07 7.38728E-07 9.31323E-10
 -1       333-1.72514E+07 1.74856E-07 2.32831E-10
 -1       334-3.35355E+06-1.86319E-08 2.91038E-11
 -1       335-2.66480E+06 3.70019E-07-2.32831E-10
 -1       336-5.40000E+06-9.05013E-07 0.00000E+00
 -1       337-3.05478E+06-9.11623E-07 1.45519E-11
 -1       338-3.39077E+06-1.48284E-07 4.36557E-11
 -1       339-2.36603E+06-2.58791E-07-1.60071E-10
 -1       340-2.45991E+06 2.59210E-06 2.29193E-09
 -1       341-4.75619E+06-1.20934E-07 2.76486E-10
 -1       342-3.70898E+06-8.77221E-06 1.87720E-09
 -1       343-1.37786E+06-8.57040E-06 5.38421E-10
 -1       344-4.73149E+06 1.56233E-06-1.58616E-09
 -1       345-7.21271E+06-8.25656E-06-1.68802E-09
 -1       346-6.16551E+06-3.86004E-06 4.07454E-10
 -1       347-2.08252E+06 1.44095E-05 2.46291E-09
 -1       348-2.79280E+06 5.16086E-06 1.09139E-09
 -1       349-3.68058E+06 1.34228E-05-6.40284E-10
 -1       350-5.15314E+06-6.03835E-06 1.00408E-09
 -1       351-1.21760E+06 1.08829E-06-1.30967E-09
 -1       352-2.64116E+06 7.40363E-06 1.43700E-09
 -1       353-1.58568E+06-1.06870E-05 1.01500E-09
 -1       354-3.52895E+06-1.48571E-07-9.02219E-10
 -1       355-5.01309E+06 1.77974E-06-1.90630E-09
 -1       356-6.58803E+06 5.03009E-07 2.45927E-09
 -1       357-6.48453E+06 1.82566E-06-3.02680E-09
 -1       358-7.59475E+06 7.69954E-06-6.11180E-10
 -1       359-7.52513E+06 8.29174E-06-8.73115E-10
 -1       360-1.52383E+07 6.14964E-08 1.16415E-10
 -1       361-1.80797E+07 1.37530E-07 1.16415E-10
 -1       362-1.41699E+07 3.89118E-08 1.74623E-10
 -1       363-1.72721E+07-1.93017E-07-1.16415E-10
 -1       364-6.99338E+06 2.88419E-08-2.91038E-11
 -1       365-7.94211E+06-7.34726E-08 1.16415E-10
 -1       366-4.91118E+06-9.02801E-08 4.36557E-11
 -1       367-5.85991E+06-6.68224E-08-7.27596E-11
 -1       368-1.94947E+07 2.62872E-06 1.51340E-09
 -1       369-1.94947E+07-1.01637E-06 1.80444E-09
 -1       370-1.94947E+07-6.48323E-06 4.07454E-10
 -1       371-1.46560E+07-4.63740E-07-9.31323E-10
 -1       372-1.46560E+07-1.21798E-06-2.91038E-10
 -1       373-1.46560E+07 2.60049E-06 6.40284E-10
 -1       374-2.83762E+05 1.81849E-06-2.29193E-10
 -1       375-2.83762E+05-1.05866E-05 1.62800E-10
 -1       376-3.35355E+05 5.51035E-06 4.95675E-10
 -1       377-2.83761E+05 9.75559E-06-3.52884E-10
 -1       378-3.35355E+05 2.84545E-05 3.06500E-10
 -1       379-2.83762E+05 1.99121E-06-1.85992E-10
 -1       380-2.83762E+05-3.46572E-06-1.43245E-10
 -1       381-2.83762E+05-9.38930E-06 9.00400E-11
 -1       382-3.40489E+06-4.79995E-08 1.45519E-11
 -1       383-5.53567E+06 2.70393E-09 7.27596E-12
 -1       384-5.53567E+06 1.53486E-08-1.45519E-11
 -1       385-5.99202E+06-7.03858E-09 0.00000E+00
 -1       386-3.40489E+06-4.94547E-08 0.00000E+00
 -1       387-5.53567E+06 3.25235E-09 0.00000E+00
 -1       388-5.99202E+06-2.95640E-08 4.36557E-11
 -1       389-4.60467E+06-8.78426E-08-1.45519E-11
 -1       390-4.60467E+06-6.57633E-08 2.91038E-11
 -1       391-4.60467E+06-5.60831E-08 0.00000E+00
 -1       392-2.26459E+05 9.36307E-08-4.09273E-12
 -1       393-2.26459E+05-5.94700E-08-9.09495E-13
 -1       394-2.67634E+05 1.73950E-08 0.00000E+00
 -1       395-2.26459E+05 2.62240E-07-3.18323E-12
 -1       396-2.67634E+05 8.02142E-08 1.81899E-12
 -1       397-2.26459E+05 2.30671E-07 2.27374E-12
 -1       398-2.26459E+05-5.71599E-08-1.09139E-11
 -1       399-2.26459E+05-2.59070E-09 9.09495E-13
 -3
 9999
