
 stresses (elem, integ.pnt.,sxx,syy,szz,sxy,sxz,syz) for set EALL and time  0.1000000E+01

         1   1 -1.220956E+05 -1.012913E+05 -4.467738E+04 -1.365200E+02 -8.602678E-12 -5.293956E-12
         1   2 -1.231406E+05 -1.016011E+05 -4.494834E+04 -3.737054E+02  6.948317E-12  6.220398E-11
         1   3 -1.233754E+05 -1.017161E+05 -4.501830E+04 -4.763896E+02 -2.895132E-12 -2.481542E-11
         1   4 -1.260683E+05 -1.010918E+05 -4.543204E+04 -2.679599E+02  0.000000E+00  2.117582E-11
         1   5 -1.272133E+05 -1.016965E+05 -4.578197E+04 -6.310550E+02 -9.264423E-12  3.705769E-11
         1   6 -1.275222E+05 -1.021015E+05 -4.592475E+04 -8.553907E+02 -1.124966E-11 -1.985233E-11
         1   7 -1.300863E+05 -1.010666E+05 -4.623059E+04 -3.698296E+02  0.000000E+00  2.117582E-11
         1   8 -1.313348E+05 -1.019776E+05 -4.666248E+04 -8.645596E+02  5.293956E-12  1.058791E-11
         1   9 -1.317204E+05 -1.026840E+05 -4.688089E+04 -1.216190E+03  9.264423E-12 -5.823352E-11
         1  10 -1.220956E+05 -1.012913E+05 -4.467738E+04 -1.365200E+02  6.617445E-13  2.646978E-12
         1  11 -1.231406E+05 -1.016011E+05 -4.494834E+04 -3.737054E+02 -6.617445E-13  2.646978E-12
         1  12 -1.233754E+05 -1.017161E+05 -4.501830E+04 -4.763896E+02 -1.488925E-12 -2.316106E-12
         1  13 -1.260683E+05 -1.010918E+05 -4.543204E+04 -2.679599E+02  0.000000E+00  5.293956E-12
         1  14 -1.272133E+05 -1.016965E+05 -4.578197E+04 -6.310550E+02  2.646978E-12  0.000000E+00
         1  15 -1.275222E+05 -1.021015E+05 -4.592475E+04 -8.553907E+02  9.926167E-13 -3.970467E-12
         1  16 -1.300863E+05 -1.010666E+05 -4.623059E+04 -3.698296E+02 -6.617445E-13  0.000000E+00
         1  17 -1.313348E+05 -1.019776E+05 -4.666248E+04 -8.645596E+02 -3.970467E-12  3.970467E-12
         1  18 -1.317204E+05 -1.026840E+05 -4.688089E+04 -1.216190E+03 -1.075335E-12  4.963084E-12
         1  19 -1.220956E+05 -1.012913E+05 -4.467738E+04 -1.365200E+02  8.602678E-12 -1.588187E-11
         1  20 -1.231406E+05 -1.016011E+05 -4.494834E+04 -3.737054E+02 -6.948317E-12 -4.102816E-11
         1  21 -1.233754E+05 -1.017161E+05 -4.501830E+04 -4.763896E+02  2.895132E-12  2.481542E-11
         1  22 -1.260683E+05 -1.010918E+05 -4.543204E+04 -2.679599E+02 -1.058791E-11  0.000000E+00
         1  23 -1.272133E+05 -1.016965E+05 -4.578197E+04 -6.310550E+02 -1.323489E-12  5.293956E-12
         1  24 -1.275222E+05 -1.021015E+05 -4.592475E+04 -8.553907E+02 -9.926167E-12 -2.249931E-11
         1  25 -1.300863E+05 -1.010666E+05 -4.623059E+04 -3.698296E+02  0.000000E+00  2.117582E-11
         1  26 -1.313348E+05 -1.019776E+05 -4.666248E+04 -8.645596E+02 -5.293956E-12 -1.058791E-11
         1  27 -1.317204E+05 -1.026840E+05 -4.688089E+04 -1.216190E+03 -1.985233E-11  1.588187E-11
         2   1 -1.233458E+05 -1.020335E+05 -4.507585E+04 -6.498472E+02  1.058791E-11  2.646978E-11
         2   2 -1.233566E+05 -1.023443E+05 -4.514018E+04 -8.366173E+02  6.617445E-13 -2.382280E-11
         2   3 -1.232602E+05 -1.026284E+05 -4.517772E+04 -1.023982E+03 -7.940934E-12 -2.316106E-11
         2   4 -1.274267E+05 -1.023064E+05 -4.594661E+04 -9.489553E+02  5.293956E-12 -5.293956E-11
         2   5 -1.272465E+05 -1.026186E+05 -4.597301E+04 -1.116429E+03  0.000000E+00 -4.235165E-11
         2   6 -1.269518E+05 -1.029023E+05 -4.597082E+04 -1.284569E+03 -6.948317E-12 -2.117582E-11
         2   7 -1.315329E+05 -1.026873E+05 -4.684405E+04 -1.257142E+03  5.293956E-12 -2.117582E-11
         2   8 -1.311640E+05 -1.030034E+05 -4.683349E+04 -1.409749E+03  1.323489E-11  1.058791E-11
         2   9 -1.306742E+05 -1.032897E+05 -4.679278E+04 -1.563400E+03 -2.117582E-11  2.382280E-11
         2  10 -1.233458E+05 -1.020335E+05 -4.507585E+04 -6.498472E+02  1.323489E-12 -7.940934E-12
         2  11 -1.233566E+05 -1.023443E+05 -4.514018E+04 -8.366173E+02  0.000000E+00  7.940934E-12
         2  12 -1.232602E+05 -1.026284E+05 -4.517772E+04 -1.023982E+03 -3.308722E-13 -3.308722E-12
         2  13 -1.274267E+05 -1.023064E+05 -4.594661E+04 -9.489553E+02 -2.646978E-12  0.000000E+00
         2  14 -1.272465E+05 -1.026186E+05 -4.597301E+04 -1.116429E+03  1.058791E-11 -5.293956E-12
         2  15 -1.269518E+05 -1.029023E+05 -4.597082E+04 -1.284569E+03  1.654361E-12 -1.323489E-12
         2  16 -1.315329E+05 -1.026873E+05 -4.684405E+04 -1.257142E+03  6.617445E-13  2.646978E-12
         2  17 -1.311640E+05 -1.030034E+05 -4.683349E+04 -1.409749E+03 -6.617445E-13 -5.293956E-12
         2  18 -1.306742E+05 -1.032897E+05 -4.679278E+04 -1.563400E+03  1.902515E-12 -4.963084E-12
         2  19 -1.233458E+05 -1.020335E+05 -4.507585E+04 -6.498472E+02  0.000000E+00  1.588187E-11
         2  20 -1.233566E+05 -1.023443E+05 -4.514018E+04 -8.366173E+02 -6.617445E-13  2.382280E-11
         2  21 -1.232602E+05 -1.026284E+05 -4.517772E+04 -1.023982E+03  7.940934E-12 -1.919059E-11
         2  22 -1.274267E+05 -1.023064E+05 -4.594661E+04 -9.489553E+02 -5.293956E-12  1.058791E-11
         2  23 -1.272465E+05 -1.026186E+05 -4.597301E+04 -1.116429E+03 -1.058791E-11  0.000000E+00
         2  24 -1.269518E+05 -1.029023E+05 -4.597082E+04 -1.284569E+03  6.948317E-12  4.235165E-11
         2  25 -1.315329E+05 -1.026873E+05 -4.684405E+04 -1.257142E+03 -1.588187E-11  0.000000E+00
         2  26 -1.311640E+05 -1.030034E+05 -4.683349E+04 -1.409749E+03 -2.646978E-12  7.411538E-11
         2  27 -1.306742E+05 -1.032897E+05 -4.679278E+04 -1.563400E+03  1.058791E-11 -2.646978E-12
         3   1 -1.343639E+05 -1.031305E+05 -4.749888E+04 -1.778494E+03  5.955700E-12 -2.382280E-11
         3   2 -1.337917E+05 -1.034554E+05 -4.744943E+04 -1.743281E+03  9.926167E-13 -2.646978E-12
         3   3 -1.328439E+05 -1.036828E+05 -4.730535E+04 -1.736324E+03 -2.067952E-12  3.639595E-12
         3   4 -1.385420E+05 -1.041033E+05 -4.852904E+04 -1.783902E+03  1.323489E-11 -1.058791E-10
         3   5 -1.379479E+05 -1.043928E+05 -4.846814E+04 -1.906182E+03 -2.646978E-12  2.117582E-11
         3   6 -1.369999E+05 -1.045881E+05 -4.831761E+04 -2.063659E+03  3.970467E-12 -7.279189E-11
         3   7 -1.426853E+05 -1.049588E+05 -4.952881E+04 -1.746575E+03  1.058791E-11 -4.235165E-11
         3   8 -1.420616E+05 -1.052048E+05 -4.945328E+04 -2.018515E+03  1.323489E-11 -3.176374E-11
         3   9 -1.411039E+05 -1.053588E+05 -4.929253E+04 -2.331533E+03  1.522012E-11  2.382280E-11
         3  10 -1.343639E+05 -1.031305E+05 -4.749888E+04 -1.778494E+03  6.617445E-13 -2.646978E-12
         3  11 -1.337917E+05 -1.034554E+05 -4.744943E+04 -1.743281E+03 -1.985233E-12 -3.970467E-12
         3  12 -1.328439E+05 -1.036828E+05 -4.730535E+04 -1.736324E+03 -9.098987E-13 -1.985233E-12
         3  13 -1.385420E+05 -1.041033E+05 -4.852904E+04 -1.783902E+03  0.000000E+00 -5.293956E-12
         3  14 -1.379479E+05 -1.043928E+05 -4.846814E+04 -1.906182E+03  3.970467E-12  2.117582E-11
         3  15 -1.369999E+05 -1.045881E+05 -4.831761E+04 -2.063659E+03 -3.639595E-12 -5.293956E-12
         3  16 -1.426853E+05 -1.049588E+05 -4.952881E+04 -1.746575E+03 -2.646978E-12  2.646978E-12
         3  17 -1.420616E+05 -1.052048E+05 -4.945328E+04 -2.018515E+03  0.000000E+00  2.646978E-12
         3  18 -1.411039E+05 -1.053588E+05 -4.929253E+04 -2.331533E+03  3.060568E-12 -2.316106E-12
         3  19 -1.343639E+05 -1.031305E+05 -4.749888E+04 -1.778494E+03  4.632211E-12  2.382280E-11
         3  20 -1.337917E+05 -1.034554E+05 -4.744943E+04 -1.743281E+03  9.595295E-12 -3.970467E-11
         3  21 -1.328439E+05 -1.036828E+05 -4.730535E+04 -1.736324E+03  1.265586E-11  3.871205E-11
         3  22 -1.385420E+05 -1.041033E+05 -4.852904E+04 -1.783902E+03 -1.323489E-11 -2.117582E-11
         3  23 -1.379479E+05 -1.043928E+05 -4.846814E+04 -1.906182E+03  2.646978E-12 -6.352747E-11
         3  24 -1.369999E+05 -1.045881E+05 -4.831761E+04 -2.063659E+03 -3.970467E-12  5.161607E-11
         3  25 -1.426853E+05 -1.049588E+05 -4.952881E+04 -1.746575E+03  0.000000E+00  0.000000E+00
         3  26 -1.420616E+05 -1.052048E+05 -4.945328E+04 -2.018515E+03 -1.323489E-11  5.293956E-11
         3  27 -1.411039E+05 -1.053588E+05 -4.929253E+04 -2.331533E+03  5.955700E-12 -2.382280E-11
         4   1 -1.326287E+05 -1.011868E+05 -4.676311E+04 -3.895362E+02  2.580804E-11  1.323489E-11
         4   2 -1.338087E+05 -1.020918E+05 -4.718010E+04 -9.766223E+02  8.602678E-12 -1.455838E-11
         4   3 -1.344065E+05 -1.028460E+05 -4.745049E+04 -1.675803E+03 -2.216844E-11 -4.963084E-12
         4   4 -1.374098E+05 -1.025950E+05 -4.800096E+04 -1.815431E+03  5.293956E-12  2.117582E-11
         4   5 -1.382663E+05 -1.031437E+05 -4.828199E+04 -1.748981E+03 -2.646978E-12  3.705769E-11
         4   6 -1.385852E+05 -1.035649E+05 -4.843001E+04 -1.853156E+03  5.293956E-12 -2.911676E-11
         4   7 -1.426482E+05 -1.058467E+05 -4.969898E+04 -3.376399E+03  1.058791E-11 -2.117582E-11
         4   8 -1.431552E+05 -1.059018E+05 -4.981138E+04 -2.659925E+03  2.646978E-12 -1.058791E-11
         4   9 -1.431696E+05 -1.058635E+05 -4.980664E+04 -2.170308E+03 -8.602678E-12 -1.588187E-11
         4  10 -1.326287E+05 -1.011868E+05 -4.676311E+04 -3.895362E+02  6.617445E-13  0.000000E+00
         4  11 -1.338087E+05 -1.020918E+05 -4.718010E+04 -9.766223E+02  2.316106E-12  3.970467E-12
         4  12 -1.344065E+05 -1.028460E+05 -4.745049E+04 -1.675803E+03  2.729696E-12  1.654361E-12
         4  13 -1.374098E+05 -1.025950E+05 -4.800096E+04 -1.815431E+03  0.000000E+00  5.293956E-12
         4  14 -1.382663E+05 -1.031437E+05 -4.828199E+04 -1.748981E+03  2.646978E-12  1.058791E-11
         4  15 -1.385852E+05 -1.035649E+05 -4.843001E+04 -1.853156E+03  0.000000E+00 -6.617445E-12
         4  16 -1.426482E+05 -1.058467E+05 -4.969898E+04 -3.376399E+03 -6.617445E-13  0.000000E+00
         4  17 -1.431552E+05 -1.059018E+05 -4.981138E+04 -2.659925E+03 -6.617445E-13  0.000000E+00
         4  18 -1.431696E+05 -1.058635E+05 -4.980664E+04 -2.170308E+03 -1.075335E-12  6.617445E-13
         4  19 -1.326287E+05 -1.011868E+05 -4.676311E+04 -3.895362E+02 -9.926167E-12  7.940934E-12
         4  20 -1.338087E+05 -1.020918E+05 -4.718010E+04 -9.766223E+02 -8.602678E-12  1.455838E-11
         4  21 -1.344065E+05 -1.028460E+05 -4.745049E+04 -1.675803E+03  9.926167E-13  4.963084E-12
         4  22 -1.374098E+05 -1.025950E+05 -4.800096E+04 -1.815431E+03 -1.588187E-11  2.117582E-11
         4  23 -1.382663E+05 -1.031437E+05 -4.828199E+04 -1.748981E+03  7.940934E-12 -3.705769E-11
         4  24 -1.385852E+05 -1.035649E+05 -4.843001E+04 -1.853156E+03 -5.293956E-12  2.911676E-11
         4  25 -1.426482E+05 -1.058467E+05 -4.969898E+04 -3.376399E+03 -1.058791E-11 -2.117582E-11
         4  26 -1.431552E+05 -1.059018E+05 -4.981138E+04 -2.659925E+03 -1.323489E-11  3.176374E-11
         4  27 -1.431696E+05 -1.058635E+05 -4.980664E+04 -2.170308E+03 -1.985233E-12 -5.293956E-12
         5   1 -3.778689E+05 -2.396233E+05 -1.234984E+05  1.439044E+05  1.919059E-11 -1.588187E-11
         5   2 -3.903838E+05 -2.310548E+05 -1.242877E+05  1.513066E+05  3.970467E-12  7.940934E-12
         5   3 -4.033304E+05 -2.225028E+05 -1.251666E+05  1.587636E+05 -1.124966E-11 -2.150670E-12
         5   4 -3.877336E+05 -2.460868E+05 -1.267641E+05  1.515742E+05 -2.646978E-12 -1.588187E-11
         5   5 -4.010459E+05 -2.380191E+05 -1.278130E+05  1.596802E+05 -1.323489E-11 -5.293956E-12
         5   6 -4.148142E+05 -2.299895E+05 -1.289607E+05  1.678607E+05  3.308722E-12 -1.985233E-12
         5   7 -3.972470E+05 -2.533326E+05 -1.301159E+05  1.595049E+05  5.293956E-12  0.000000E+00
         5   8 -4.113483E+05 -2.457910E+05 -1.314279E+05  1.683171E+05  1.323489E-11 -1.588187E-11
         5   9 -4.259296E+05 -2.383097E+05 -1.328479E+05  1.772236E+05  7.279189E-12 -4.102816E-11
         5  10 -3.778689E+05 -2.396233E+05 -1.234984E+05  1.439044E+05 -6.617445E-13  2.646978E-12
         5  11 -3.903838E+05 -2.310548E+05 -1.242877E+05  1.513066E+05 -1.323489E-12  2.646978E-12
         5  12 -4.033304E+05 -2.225028E+05 -1.251666E+05  1.587636E+05 -1.654361E-13  9.926167E-13
         5  13 -3.877336E+05 -2.460868E+05 -1.267641E+05  1.515742E+05 -2.646978E-12  5.293956E-12
         5  14 -4.010459E+05 -2.380191E+05 -1.278130E+05  1.596802E+05  1.323489E-12  5.293956E-12
         5  15 -4.148142E+05 -2.299895E+05 -1.289607E+05  1.678607E+05 -9.926167E-13 -1.654361E-12
         5  16 -3.972470E+05 -2.533326E+05 -1.301159E+05  1.595049E+05  6.617445E-13 -2.646978E-12
         5  17 -4.113483E+05 -2.457910E+05 -1.314279E+05  1.683171E+05 -2.646978E-12 -6.617445E-13
         5  18 -4.259296E+05 -2.383097E+05 -1.328479E+05  1.772236E+05  1.323489E-12 -4.963084E-13
         5  19 -3.778689E+05 -2.396233E+05 -1.234984E+05  1.439044E+05 -8.602678E-12 -5.293956E-12
         5  20 -3.903838E+05 -2.310548E+05 -1.242877E+05  1.513066E+05  6.617445E-12  2.646978E-12
         5  21 -4.033304E+05 -2.225028E+05 -1.251666E+05  1.587636E+05  6.617445E-13  2.150670E-12
         5  22 -3.877336E+05 -2.460868E+05 -1.267641E+05  1.515742E+05  2.646978E-12  1.588187E-11
         5  23 -4.010459E+05 -2.380191E+05 -1.278130E+05  1.596802E+05 -7.940934E-12  5.293956E-12
         5  24 -4.148142E+05 -2.299895E+05 -1.289607E+05  1.678607E+05 -1.389663E-11  2.316106E-11
         5  25 -3.972470E+05 -2.533326E+05 -1.301159E+05  1.595049E+05 -1.588187E-11  0.000000E+00
         5  26 -4.113483E+05 -2.457910E+05 -1.314279E+05  1.683171E+05  7.940934E-12 -5.293956E-12
         5  27 -4.259296E+05 -2.383097E+05 -1.328479E+05  1.772236E+05 -1.786710E-11  3.044025E-11
         6   1 -4.115567E+05 -2.165050E+05 -1.256123E+05  1.624828E+05 -6.617445E-13 -1.455838E-11
         6   2 -4.274161E+05 -2.042276E+05 -1.263287E+05  1.671985E+05  1.455838E-11 -3.904292E-11
         6   3 -4.436343E+05 -1.915076E+05 -1.270284E+05  1.717053E+05  1.067063E-11  3.904292E-11
         6   4 -4.236874E+05 -2.242160E+05 -1.295807E+05  1.720562E+05 -5.293956E-12  0.000000E+00
         6   5 -4.407761E+05 -2.122018E+05 -1.305956E+05  1.779156E+05  0.000000E+00 -2.646978E-12
         6   6 -4.583617E+05 -1.998861E+05 -1.316496E+05  1.836705E+05  5.293956E-12  1.389663E-11
         6   7 -4.352003E+05 -2.329094E+05 -1.336219E+05  1.820248E+05  5.293956E-12  1.058791E-11
         6   8 -4.533394E+05 -2.212025E+05 -1.349084E+05  1.889769E+05  5.293956E-12 -1.588187E-11
         6   9 -4.721004E+05 -2.093433E+05 -1.362887E+05  1.959289E+05 -1.323489E-12  2.646978E-12
         6  10 -4.115567E+05 -2.165050E+05 -1.256123E+05  1.624828E+05  0.000000E+00  0.000000E+00
         6  11 -4.274161E+05 -2.042276E+05 -1.263287E+05  1.671985E+05  1.323489E-12  2.646978E-12
         6  12 -4.436343E+05 -1.915076E+05 -1.270284E+05  1.717053E+05 -1.985233E-12  0.000000E+00
         6  13 -4.236874E+05 -2.242160E+05 -1.295807E+05  1.720562E+05  2.646978E-12  2.646978E-12
         6  14 -4.407761E+05 -2.122018E+05 -1.305956E+05  1.779156E+05 -1.323489E-12  2.646978E-12
         6  15 -4.583617E+05 -1.998861E+05 -1.316496E+05  1.836705E+05 -3.639595E-12 -4.632211E-12
         6  16 -4.352003E+05 -2.329094E+05 -1.336219E+05  1.820248E+05  2.646978E-12  1.323489E-12
         6  17 -4.533394E+05 -2.212025E+05 -1.349084E+05  1.889769E+05  0.000000E+00 -1.985233E-12
         6  18 -4.721004E+05 -2.093433E+05 -1.362887E+05  1.959289E+05 -9.926167E-13 -3.308722E-13
         6  19 -4.115567E+05 -2.165050E+05 -1.256123E+05  1.624828E+05 -9.926167E-12  3.970467E-12
         6  20 -4.274161E+05 -2.042276E+05 -1.263287E+05  1.671985E+05 -3.970467E-12  1.786710E-11
         6  21 -4.436343E+05 -1.915076E+05 -1.270284E+05  1.717053E+05 -1.067063E-11  2.448455E-11
         6  22 -4.236874E+05 -2.242160E+05 -1.295807E+05  1.720562E+05 -5.293956E-12  1.058791E-11
         6  23 -4.407761E+05 -2.122018E+05 -1.305956E+05  1.779156E+05  0.000000E+00  2.646978E-12
         6  24 -4.583617E+05 -1.998861E+05 -1.316496E+05  1.836705E+05 -1.588187E-11  1.786710E-11
         6  25 -4.352003E+05 -2.329094E+05 -1.336219E+05  1.820248E+05 -1.588187E-11  1.058791E-11
         6  26 -4.533394E+05 -2.212025E+05 -1.349084E+05  1.889769E+05 -5.293956E-12  1.588187E-11
         6  27 -4.721004E+05 -2.093433E+05 -1.362887E+05  1.959289E+05  1.323489E-12 -2.646978E-12
         7   1 -4.419792E+05 -2.377564E+05 -1.359471E+05  1.877118E+05  1.058791E-11 -2.117582E-11
         7   2 -4.605085E+05 -2.263757E+05 -1.373768E+05  1.953562E+05  5.293956E-12 -3.970467E-11
         7   3 -4.801978E+05 -2.150355E+05 -1.390467E+05  2.031746E+05  6.700163E-12  6.121137E-12
         7   4 -4.532239E+05 -2.452107E+05 -1.396869E+05  1.969456E+05  0.000000E+00  0.000000E+00
         7   5 -4.725454E+05 -2.346526E+05 -1.414396E+05  2.059552E+05 -1.852885E-11  1.852885E-11
         7   6 -4.931476E+05 -2.242871E+05 -1.434869E+05  2.152403E+05  9.264423E-12 -3.838118E-11
         7   7 -4.638652E+05 -2.537025E+05 -1.435135E+05  2.064780E+05  1.588187E-11  1.058791E-11
         7   8 -4.837758E+05 -2.439839E+05 -1.455519E+05  2.167801E+05 -1.852885E-11 -1.588187E-11
         7   9 -5.050620E+05 -2.346069E+05 -1.479338E+05  2.274517E+05  2.646978E-12 -2.646978E-12
         7  10 -4.419792E+05 -2.377564E+05 -1.359471E+05  1.877118E+05  0.000000E+00  0.000000E+00
         7  11 -4.605085E+05 -2.263757E+05 -1.373768E+05  1.953562E+05  1.985233E-12 -4.632211E-12
         7  12 -4.801978E+05 -2.150355E+05 -1.390467E+05  2.031746E+05  2.481542E-12 -3.308722E-13
         7  13 -4.532239E+05 -2.452107E+05 -1.396869E+05  1.969456E+05  2.646978E-12 -2.646978E-12
         7  14 -4.725454E+05 -2.346526E+05 -1.414396E+05  2.059552E+05 -2.646978E-12  7.940934E-12
         7  15 -4.931476E+05 -2.242871E+05 -1.434869E+05  2.152403E+05  0.000000E+00 -2.646978E-12
         7  16 -4.638652E+05 -2.537025E+05 -1.435135E+05  2.064780E+05 -1.323489E-12  1.323489E-12
         7  17 -4.837758E+05 -2.439839E+05 -1.455519E+05  2.167801E+05  0.000000E+00 -1.985233E-12
         7  18 -5.050620E+05 -2.346069E+05 -1.479338E+05  2.274517E+05 -6.617445E-13  0.000000E+00
         7  19 -4.419792E+05 -2.377564E+05 -1.359471E+05  1.877118E+05  0.000000E+00  1.058791E-11
         7  20 -4.605085E+05 -2.263757E+05 -1.373768E+05  1.953562E+05 -1.588187E-11  7.940934E-12
         7  21 -4.801978E+05 -2.150355E+05 -1.390467E+05  2.031746E+05 -2.787599E-11  2.564260E-11
         7  22 -4.532239E+05 -2.452107E+05 -1.396869E+05  1.969456E+05 -1.058791E-11  0.000000E+00
         7  23 -4.725454E+05 -2.346526E+05 -1.414396E+05  2.059552E+05  7.940934E-12 -7.940934E-12
         7  24 -4.931476E+05 -2.242871E+05 -1.434869E+05  2.152403E+05  1.323489E-12  6.617445E-12
         7  25 -4.638652E+05 -2.537025E+05 -1.435135E+05  2.064780E+05 -1.588187E-11  0.000000E+00
         7  26 -4.837758E+05 -2.439839E+05 -1.455519E+05  2.167801E+05  7.940934E-12 -5.293956E-12
         7  27 -5.050620E+05 -2.346069E+05 -1.479338E+05  2.274517E+05  7.940934E-12  2.646978E-12
         8   1 -4.031109E+05 -2.570513E+05 -1.320324E+05  1.640794E+05 -3.970467E-12 -2.646978E-12
         8   2 -4.172976E+05 -2.497307E+05 -1.334057E+05  1.731490E+05  6.286573E-12  8.602678E-12
         8   3 -4.324286E+05 -2.428567E+05 -1.350571E+05  1.825727E+05 -7.858216E-12  1.505469E-11
         8   4 -4.133452E+05 -2.620940E+05 -1.350878E+05  1.715075E+05  1.058791E-11 -1.058791E-11
         8   5 -4.278199E+05 -2.557207E+05 -1.367081E+05  1.812205E+05 -1.058791E-11  1.852885E-11
         8   6 -4.432577E+05 -2.498207E+05 -1.386157E+05  1.913067E+05  6.286573E-12  1.323489E-12
         8   7 -4.232898E+05 -2.678607E+05 -1.382301E+05  1.790816E+05 -5.293956E-12  1.058791E-11
         8   8 -4.380524E+05 -2.624638E+05 -1.401032E+05  1.894428E+05  0.000000E+00  5.293956E-12
         8   9 -4.537969E+05 -2.575681E+05 -1.422730E+05  2.001967E+05 -5.955700E-12  7.940934E-12
         8  10 -4.031109E+05 -2.570513E+05 -1.320324E+05  1.640794E+05  1.323489E-12  0.000000E+00
         8  11 -4.172976E+05 -2.497307E+05 -1.334057E+05  1.731490E+05  1.323489E-12 -1.323489E-12
         8  12 -4.324286E+05 -2.428567E+05 -1.350571E+05  1.825727E+05  1.571643E-12  1.985233E-12
         8  13 -4.133452E+05 -2.620940E+05 -1.350878E+05  1.715075E+05  2.646978E-12  0.000000E+00
         8  14 -4.278199E+05 -2.557207E+05 -1.367081E+05  1.812205E+05  0.000000E+00  1.323489E-12
         8  15 -4.432577E+05 -2.498207E+05 -1.386157E+05  1.913067E+05  3.970467E-12  1.985233E-12
         8  16 -4.232898E+05 -2.678607E+05 -1.382301E+05  1.790816E+05 -6.617445E-13 -2.646978E-12
         8  17 -4.380524E+05 -2.624638E+05 -1.401032E+05  1.894428E+05 -6.617445E-13 -1.323489E-12
         8  18 -4.537969E+05 -2.575681E+05 -1.422730E+05  2.001967E+05  1.737079E-12  1.158053E-12
         8  19 -4.031109E+05 -2.570513E+05 -1.320324E+05  1.640794E+05 -6.617445E-12  1.323489E-11
         8  20 -4.172976E+05 -2.497307E+05 -1.334057E+05  1.731490E+05 -1.687448E-11  1.257315E-11
         8  21 -4.324286E+05 -2.428567E+05 -1.350571E+05  1.825727E+05 -2.729696E-12 -4.466775E-12
         8  22 -4.133452E+05 -2.620940E+05 -1.350878E+05  1.715075E+05  0.000000E+00  0.000000E+00
         8  23 -4.278199E+05 -2.557207E+05 -1.367081E+05  1.812205E+05  1.058791E-11  2.646978E-12
         8  24 -4.432577E+05 -2.498207E+05 -1.386157E+05  1.913067E+05 -6.286573E-12  1.985233E-11
         8  25 -4.232898E+05 -2.678607E+05 -1.382301E+05  1.790816E+05 -5.293956E-12 -1.058791E-11
         8  26 -4.380524E+05 -2.624638E+05 -1.401032E+05  1.894428E+05  0.000000E+00 -1.588187E-11
         8  27 -4.537969E+05 -2.575681E+05 -1.422730E+05  2.001967E+05  5.955700E-12 -7.940934E-12
         9   1 -2.854914E+05 -1.780515E+05 -9.270858E+04  6.453646E+04  3.970467E-12 -3.441071E-11
         9   2 -2.860468E+05 -1.681097E+05 -9.083130E+04  6.800472E+04  2.051408E-11  2.646978E-11
         9   3 -2.851473E+05 -1.571129E+05 -8.845205E+04  7.073095E+04  3.457615E-11  1.952146E-11
         9   4 -2.932667E+05 -1.807796E+05 -9.480926E+04  7.199814E+04  0.000000E+00 -4.235165E-11
         9   5 -2.951485E+05 -1.714603E+05 -9.332178E+04  7.539981E+04  0.000000E+00  5.293956E-12
         9   6 -2.952453E+05 -1.609783E+05 -9.124473E+04  7.796688E+04  1.323489E-12  3.970467E-12
         9   7 -3.005132E+05 -1.837055E+05 -9.684375E+04  7.962237E+04  1.588187E-11 -2.117582E-11
         9   8 -3.039958E+05 -1.750570E+05 -9.581056E+04  8.290324E+04  0.000000E+00  0.000000E+00
         9   9 -3.052912E+05 -1.651151E+05 -9.408126E+04  8.523902E+04 -1.985233E-12  3.308722E-11
         9  10 -2.854914E+05 -1.780515E+05 -9.270858E+04  6.453646E+04  6.617445E-13  2.646978E-12
         9  11 -2.860468E+05 -1.681097E+05 -9.083130E+04  6.800472E+04  1.985233E-12  7.940934E-12
         9  12 -2.851473E+05 -1.571129E+05 -8.845205E+04  7.073095E+04  2.812414E-12 -3.308722E-12
         9  13 -2.932667E+05 -1.807796E+05 -9.480926E+04  7.199814E+04  2.646978E-12 -1.058791E-11
         9  14 -2.951485E+05 -1.714603E+05 -9.332178E+04  7.539981E+04  0.000000E+00 -5.293956E-12
         9  15 -2.952453E+05 -1.609783E+05 -9.124473E+04  7.796688E+04  3.308722E-13 -6.617445E-12
         9  16 -3.005132E+05 -1.837055E+05 -9.684375E+04  7.962237E+04  3.308722E-12 -2.646978E-12
         9  17 -3.039958E+05 -1.750570E+05 -9.581056E+04  8.290324E+04 -6.617445E-13  1.323489E-12
         9  18 -3.052912E+05 -1.651151E+05 -9.408126E+04  8.523902E+04 -1.323489E-12 -2.646978E-12
         9  19 -2.854914E+05 -1.780515E+05 -9.270858E+04  6.453646E+04  6.617445E-12 -2.911676E-11
         9  20 -2.860468E+05 -1.681097E+05 -9.083130E+04  6.800472E+04 -2.051408E-11 -5.293956E-12
         9  21 -2.851473E+05 -1.571129E+05 -8.845205E+04  7.073095E+04 -1.340033E-11  1.654361E-12
         9  22 -2.932667E+05 -1.807796E+05 -9.480926E+04  7.199814E+04 -1.058791E-11  2.117582E-11
         9  23 -2.951485E+05 -1.714603E+05 -9.332178E+04  7.539981E+04  0.000000E+00 -5.293956E-12
         9  24 -2.952453E+05 -1.609783E+05 -9.124473E+04  7.796688E+04 -1.323489E-12  1.720536E-11
         9  25 -3.005132E+05 -1.837055E+05 -9.684375E+04  7.962237E+04  5.293956E-12  0.000000E+00
         9  26 -3.039958E+05 -1.750570E+05 -9.581056E+04  8.290324E+04 -1.058791E-11  0.000000E+00
         9  27 -3.052912E+05 -1.651151E+05 -9.408126E+04  8.523902E+04 -8.602678E-12  9.264423E-12
        10   1 -2.848118E+05 -1.502740E+05 -8.701716E+04  7.103573E+04  2.713152E-11 -6.617445E-11
        10   2 -2.843614E+05 -1.398211E+05 -8.483649E+04  6.926801E+04  5.293956E-12 -1.058791E-11
        10   3 -2.822201E+05 -1.281406E+05 -8.207212E+04  6.662565E+04  1.174596E-11 -7.610062E-12
        10   4 -2.959820E+05 -1.544122E+05 -9.007884E+04  7.820324E+04 -5.293956E-12 -2.117582E-11
        10   5 -2.976719E+05 -1.438495E+05 -8.830429E+04  7.690582E+04 -1.323489E-11  5.293956E-12
        10   6 -2.975322E+05 -1.320310E+05 -8.591262E+04  7.469705E+04 -1.522012E-11 -3.970467E-12
        10   7 -3.066383E+05 -1.590728E+05 -9.314223E+04  8.580532E+04  1.058791E-11  1.058791E-11
        10   8 -3.105316E+05 -1.483614E+05 -9.177859E+04  8.495963E+04 -1.588187E-11 -3.176374E-11
        10   9 -3.124645E+05 -1.363783E+05 -8.976856E+04  8.317456E+04  1.786710E-11  3.573420E-11
        10  10 -2.848118E+05 -1.502740E+05 -8.701716E+04  7.103573E+04 -1.323489E-12  0.000000E+00
        10  11 -2.843614E+05 -1.398211E+05 -8.483649E+04  6.926801E+04  6.617445E-13 -6.617445E-12
        10  12 -2.822201E+05 -1.281406E+05 -8.207212E+04  6.662565E+04 -1.654361E-12 -6.617445E-13
        10  13 -2.959820E+05 -1.544122E+05 -9.007884E+04  7.820324E+04  0.000000E+00  0.000000E+00
        10  14 -2.976719E+05 -1.438495E+05 -8.830429E+04  7.690582E+04  5.293956E-12  1.058791E-11
        10  15 -2.975322E+05 -1.320310E+05 -8.591262E+04  7.469705E+04  3.970467E-12 -1.124966E-11
        10  16 -3.066383E+05 -1.590728E+05 -9.314223E+04  8.580532E+04  1.323489E-12 -2.646978E-12
        10  17 -3.105316E+05 -1.483614E+05 -9.177859E+04  8.495963E+04  0.000000E+00 -3.970467E-12
        10  18 -3.124645E+05 -1.363783E+05 -8.976856E+04  8.317456E+04 -4.963084E-13 -6.617445E-12
        10  19 -2.848118E+05 -1.502740E+05 -8.701716E+04  7.103573E+04 -5.955700E-12  4.499863E-11
        10  20 -2.843614E+05 -1.398211E+05 -8.483649E+04  6.926801E+04 -1.588187E-11  3.176374E-11
        10  21 -2.822201E+05 -1.281406E+05 -8.207212E+04  6.662565E+04 -1.174596E-11  7.610062E-12
        10  22 -2.959820E+05 -1.544122E+05 -9.007884E+04  7.820324E+04  5.293956E-12  4.235165E-11
        10  23 -2.976719E+05 -1.438495E+05 -8.830429E+04  7.690582E+04  2.382280E-11 -5.293956E-12
        10  24 -2.975322E+05 -1.320310E+05 -8.591262E+04  7.469705E+04  4.632211E-12  3.970467E-12
        10  25 -3.066383E+05 -1.590728E+05 -9.314223E+04  8.580532E+04 -1.058791E-11 -1.058791E-11
        10  26 -3.105316E+05 -1.483614E+05 -9.177859E+04  8.495963E+04  5.293956E-12 -1.058791E-11
        10  27 -3.124645E+05 -1.363783E+05 -8.976856E+04  8.317456E+04 -1.786710E-11  6.617445E-12
        11   1 -3.138593E+05 -1.622036E+05 -9.521258E+04  9.060526E+04  3.308722E-12 -2.249931E-11
        11   2 -3.183928E+05 -1.511685E+05 -9.391226E+04  8.986034E+04  1.124966E-11 -1.124966E-11
        11   3 -3.218743E+05 -1.392344E+05 -9.222174E+04  8.845489E+04  5.955700E-12 -9.760731E-12
        11   4 -3.267831E+05 -1.675729E+05 -9.887120E+04  9.898761E+04  2.117582E-11 -1.058791E-11
        11   5 -3.329307E+05 -1.563382E+05 -9.785377E+04  9.869904E+04 -1.852885E-11 -3.176374E-11
        11   6 -3.380895E+05 -1.442491E+05 -9.646771E+04  9.778882E+04  9.264423E-12  2.580804E-11
        11   7 -3.391371E+05 -1.735721E+05 -1.025418E+05  1.078579E+05 -5.293956E-12  2.117582E-11
        11   8 -3.468622E+05 -1.621746E+05 -1.018074E+05  1.080338E+05  1.588187E-11  3.176374E-11
        11   9 -3.536747E+05 -1.499811E+05 -1.007311E+05  1.076358E+05  2.249931E-11 -4.764560E-11
        11  10 -3.138593E+05 -1.622036E+05 -9.521258E+04  9.060526E+04  0.000000E+00  2.646978E-12
        11  11 -3.183928E+05 -1.511685E+05 -9.391226E+04  8.986034E+04 -1.985233E-12 -7.940934E-12
        11  12 -3.218743E+05 -1.392344E+05 -9.222174E+04  8.845489E+04  8.271806E-13 -2.646978E-12
        11  13 -3.267831E+05 -1.675729E+05 -9.887120E+04  9.898761E+04  5.293956E-12  5.293956E-12
        11  14 -3.329307E+05 -1.563382E+05 -9.785377E+04  9.869904E+04 -1.323489E-12 -2.646978E-12
        11  15 -3.380895E+05 -1.442491E+05 -9.646771E+04  9.778882E+04  3.970467E-12  2.646978E-12
        11  16 -3.391371E+05 -1.735721E+05 -1.025418E+05  1.078579E+05  0.000000E+00  0.000000E+00
        11  17 -3.468622E+05 -1.621746E+05 -1.018074E+05  1.080338E+05 -6.617445E-13 -3.970467E-12
        11  18 -3.536747E+05 -1.499811E+05 -1.007311E+05  1.076358E+05 -3.805031E-12  4.301339E-12
        11  19 -3.138593E+05 -1.622036E+05 -9.521258E+04  9.060526E+04 -3.308722E-12  1.323489E-12
        11  20 -3.183928E+05 -1.511685E+05 -9.391226E+04  8.986034E+04 -1.124966E-11  1.124966E-11
        11  21 -3.218743E+05 -1.392344E+05 -9.222174E+04  8.845489E+04  1.522012E-11  9.760731E-12
        11  22 -3.267831E+05 -1.675729E+05 -9.887120E+04  9.898761E+04 -3.176374E-11  1.058791E-11
        11  23 -3.329307E+05 -1.563382E+05 -9.785377E+04  9.869904E+04  1.852885E-11 -1.058791E-11
        11  24 -3.380895E+05 -1.442491E+05 -9.646771E+04  9.778882E+04 -9.264423E-12  1.654361E-11
        11  25 -3.391371E+05 -1.735721E+05 -1.025418E+05  1.078579E+05  5.293956E-12 -2.117582E-11
        11  26 -3.468622E+05 -1.621746E+05 -1.018074E+05  1.080338E+05  5.293956E-12 -1.058791E-11
        11  27 -3.536747E+05 -1.499811E+05 -1.007311E+05  1.076358E+05 -1.323489E-12  4.764560E-11
        12   1 -3.059223E+05 -1.863896E+05 -9.846238E+04  8.427762E+04 -1.389663E-11 -2.382280E-11
        12   2 -3.093391E+05 -1.775271E+05 -9.737325E+04  8.728055E+04  1.290402E-11 -1.257315E-11
        12   3 -3.119620E+05 -1.680321E+05 -9.599881E+04  8.984014E+04 -8.519960E-12  3.970467E-12
        12   4 -3.151721E+05 -1.916474E+05 -1.013639E+05  9.173518E+04  2.646978E-11  0.000000E+00
        12   5 -3.199528E+05 -1.829087E+05 -1.005723E+05  9.515346E+04 -7.940934E-12  2.117582E-11
        12   6 -3.239007E+05 -1.735171E+05 -9.948356E+04  9.811077E+04 -5.624828E-12 -7.940934E-12
        12   7 -3.240479E+05 -1.976011E+05 -1.043298E+05  9.948211E+04 -5.293956E-12  0.000000E+00
        12   8 -3.302186E+05 -1.889681E+05 -1.038374E+05  1.033154E+05  7.940934E-12 -2.646978E-11
        12   9 -3.355165E+05 -1.796615E+05 -1.030356E+05  1.066696E+05  7.279189E-12 -3.838118E-11
        12  10 -3.059223E+05 -1.863896E+05 -9.846238E+04  8.427762E+04 -6.617445E-13  1.323489E-12
        12  11 -3.093391E+05 -1.775271E+05 -9.737325E+04  8.728055E+04  1.985233E-12 -2.646978E-12
        12  12 -3.119620E+05 -1.680321E+05 -9.599881E+04  8.984014E+04  1.654361E-13 -6.617445E-13
        12  13 -3.151721E+05 -1.916474E+05 -1.013639E+05  9.173518E+04  0.000000E+00  5.293956E-12
        12  14 -3.199528E+05 -1.829087E+05 -1.005723E+05  9.515346E+04  0.000000E+00  0.000000E+00
        12  15 -3.239007E+05 -1.735171E+05 -9.948356E+04  9.811077E+04  1.323489E-12 -3.970467E-12
        12  16 -3.240479E+05 -1.976011E+05 -1.043298E+05  9.948211E+04 -6.617445E-13  0.000000E+00
        12  17 -3.302186E+05 -1.889681E+05 -1.038374E+05  1.033154E+05  1.985233E-12 -5.293956E-12
        12  18 -3.355165E+05 -1.796615E+05 -1.030356E+05  1.066696E+05 -3.308722E-13  2.316106E-12
        12  19 -3.059223E+05 -1.863896E+05 -9.846238E+04  8.427762E+04 -7.279189E-12  2.382280E-11
        12  20 -3.093391E+05 -1.775271E+05 -9.737325E+04  8.728055E+04  8.271806E-12  1.257315E-11
        12  21 -3.119620E+05 -1.680321E+05 -9.599881E+04  8.984014E+04  1.910787E-11 -2.514629E-11
        12  22 -3.151721E+05 -1.916474E+05 -1.013639E+05  9.173518E+04 -2.646978E-11  0.000000E+00
        12  23 -3.199528E+05 -1.829087E+05 -1.005723E+05  9.515346E+04  7.940934E-12  0.000000E+00
        12  24 -3.239007E+05 -1.735171E+05 -9.948356E+04  9.811077E+04 -4.963084E-12  7.940934E-12
        12  25 -3.240479E+05 -1.976011E+05 -1.043298E+05  9.948211E+04 -1.588187E-11  2.117582E-11
        12  26 -3.302186E+05 -1.889681E+05 -1.038374E+05  1.033154E+05 -1.852885E-11  2.646978E-11
        12  27 -3.355165E+05 -1.796615E+05 -1.030356E+05  1.066696E+05 -1.786710E-11  3.838118E-11
        13   1 -5.513429E+05 -2.936118E+05 -1.689909E+05  2.890161E+05  6.617445E-13 -1.323489E-11
        13   2 -5.532768E+05 -3.025112E+05 -1.711576E+05  2.966486E+05  2.249931E-11  1.654361E-12
        13   3 -5.545150E+05 -3.120049E+05 -1.733040E+05  3.038662E+05  7.775498E-12  7.940934E-12
        13   4 -5.310447E+05 -2.915607E+05 -1.645211E+05  2.694976E+05  1.058791E-11  2.646978E-12
        13   5 -5.346930E+05 -2.981399E+05 -1.665666E+05  2.760781E+05 -2.646978E-12 -2.646978E-12
        13   6 -5.379603E+05 -3.053817E+05 -1.686684E+05  2.824189E+05 -3.970467E-12 -8.271806E-12
        13   7 -5.144916E+05 -2.916965E+05 -1.612376E+05  2.515977E+05 -5.293956E-12  0.000000E+00
        13   8 -5.198617E+05 -2.961102E+05 -1.631944E+05  2.572060E+05  0.000000E+00 -1.852885E-11
        13   9 -5.250983E+05 -3.012155E+05 -1.652628E+05  2.627168E+05  1.852885E-11  0.000000E+00
        13  10 -5.513429E+05 -2.936118E+05 -1.689909E+05  2.890161E+05 -1.323489E-12  6.617445E-13
        13  11 -5.532768E+05 -3.025112E+05 -1.711576E+05  2.966486E+05  6.617445E-13 -6.617445E-13
        13  12 -5.545150E+05 -3.120049E+05 -1.733040E+05  3.038662E+05 -8.271806E-14 -9.926167E-13
        13  13 -5.310447E+05 -2.915607E+05 -1.645211E+05  2.694976E+05  2.646978E-12 -2.646978E-12
        13  14 -5.346930E+05 -2.981399E+05 -1.665666E+05  2.760781E+05  3.970467E-12  0.000000E+00
        13  15 -5.379603E+05 -3.053817E+05 -1.686684E+05  2.824189E+05 -6.617445E-13  9.926167E-13
        13  16 -5.144916E+05 -2.916965E+05 -1.612376E+05  2.515977E+05  1.323489E-12 -6.617445E-13
        13  17 -5.198617E+05 -2.961102E+05 -1.631944E+05  2.572060E+05  2.646978E-12 -1.323489E-12
        13  18 -5.250983E+05 -3.012155E+05 -1.652628E+05  2.627168E+05  9.098987E-13 -3.308722E-13
        13  19 -5.513429E+05 -2.936118E+05 -1.689909E+05  2.890161E+05 -1.124966E-11 -7.940934E-12
        13  20 -5.532768E+05 -3.025112E+05 -1.711576E+05  2.966486E+05 -1.323489E-12 -1.654361E-12
        13  21 -5.545150E+05 -3.120049E+05 -1.733040E+05  3.038662E+05  2.812414E-12 -2.646978E-12
        13  22 -5.310447E+05 -2.915607E+05 -1.645211E+05  2.694976E+05  1.058791E-11  7.940934E-12
        13  23 -5.346930E+05 -2.981399E+05 -1.665666E+05  2.760781E+05  2.646978E-12 -7.940934E-12
        13  24 -5.379603E+05 -3.053817E+05 -1.686684E+05  2.824189E+05 -1.323489E-12  8.271806E-12
        13  25 -5.144916E+05 -2.916965E+05 -1.612376E+05  2.515977E+05 -5.293956E-12 -1.058791E-11
        13  26 -5.198617E+05 -2.961102E+05 -1.631944E+05  2.572060E+05  5.293956E-12  1.852885E-11
        13  27 -5.250983E+05 -3.012155E+05 -1.652628E+05  2.627168E+05 -2.646978E-12  0.000000E+00
        14   1 -5.540612E+05 -3.171500E+05 -1.742422E+05  3.073884E+05  1.985233E-12  7.279189E-12
        14   2 -5.506772E+05 -3.244693E+05 -1.750293E+05  3.118049E+05 -1.124966E-11 -4.301339E-12
        14   3 -5.470067E+05 -3.319780E+05 -1.757969E+05  3.156121E+05  1.331761E-11  3.556877E-12
        14   4 -5.386709E+05 -3.089605E+05 -1.695263E+05  2.853661E+05  7.940934E-12 -2.646978E-12
        14   5 -5.377874E+05 -3.139665E+05 -1.703508E+05  2.891406E+05  1.323489E-12  6.617445E-12
        14   6 -5.368979E+05 -3.192885E+05 -1.712373E+05  2.925170E+05  1.555100E-11  5.293956E-12
        14   7 -5.272888E+05 -3.034633E+05 -1.661504E+05  2.652521E+05  1.588187E-11  0.000000E+00
        14   8 -5.288096E+05 -3.062629E+05 -1.670145E+05  2.684163E+05 -1.323489E-11 -5.293956E-12
        14   9 -5.305348E+05 -3.094549E+05 -1.679979E+05  2.713542E+05  1.191140E-11  0.000000E+00
        14  10 -5.540612E+05 -3.171500E+05 -1.742422E+05  3.073884E+05  0.000000E+00 -1.323489E-12
        14  11 -5.506772E+05 -3.244693E+05 -1.750293E+05  3.118049E+05 -6.617445E-13  1.654361E-12
        14  12 -5.470067E+05 -3.319780E+05 -1.757969E+05  3.156121E+05  1.571643E-12  8.271806E-14
        14  13 -5.386709E+05 -3.089605E+05 -1.695263E+05  2.853661E+05  0.000000E+00  2.646978E-12
        14  14 -5.377874E+05 -3.139665E+05 -1.703508E+05  2.891406E+05  0.000000E+00  0.000000E+00
        14  15 -5.368979E+05 -3.192885E+05 -1.712373E+05  2.925170E+05 -1.654361E-12  3.639595E-12
        14  16 -5.272888E+05 -3.034633E+05 -1.661504E+05  2.652521E+05  6.617445E-13  6.617445E-13
        14  17 -5.288096E+05 -3.062629E+05 -1.670145E+05  2.684163E+05 -3.308722E-13  3.308722E-13
        14  18 -5.305348E+05 -3.094549E+05 -1.679979E+05  2.713542E+05 -1.902515E-12  1.654361E-13
        14  19 -5.540612E+05 -3.171500E+05 -1.742422E+05  3.073884E+05 -1.257315E-11  8.602678E-12
        14  20 -5.506772E+05 -3.244693E+05 -1.750293E+05  3.118049E+05  5.955700E-12 -9.926167E-13
        14  21 -5.470067E+05 -3.319780E+05 -1.757969E+05  3.156121E+05 -8.023652E-12  1.737079E-12
        14  22 -5.386709E+05 -3.089605E+05 -1.695263E+05  2.853661E+05 -7.940934E-12  2.646978E-12
        14  23 -5.377874E+05 -3.139665E+05 -1.703508E+05  2.891406E+05 -1.323489E-12 -6.617445E-12
        14  24 -5.368979E+05 -3.192885E+05 -1.712373E+05  2.925170E+05 -4.963084E-12  5.293956E-12
        14  25 -5.272888E+05 -3.034633E+05 -1.661504E+05  2.652521E+05 -5.293956E-12  0.000000E+00
        14  26 -5.288096E+05 -3.062629E+05 -1.670145E+05  2.684163E+05  1.323489E-11 -1.588187E-11
        14  27 -5.305348E+05 -3.094549E+05 -1.679979E+05  2.713542E+05  9.264423E-12  5.293956E-12
        15   1 -5.212493E+05 -2.990221E+05 -1.640543E+05  2.551272E+05 -4.632211E-12 -1.654361E-11
        15   2 -5.238935E+05 -3.007315E+05 -1.649250E+05  2.581223E+05  7.279189E-12  7.610062E-12
        15   3 -5.269310E+05 -3.028337E+05 -1.659529E+05  2.608713E+05  4.714929E-12 -4.880366E-12
        15   4 -5.114378E+05 -2.906895E+05 -1.604255E+05  2.397346E+05  0.000000E+00 -5.293956E-12
        15   5 -5.161329E+05 -2.908258E+05 -1.613917E+05  2.425039E+05 -1.588187E-11 -5.293956E-12
        15   6 -5.212061E+05 -2.912912E+05 -1.624995E+05  2.450461E+05  5.955700E-12 -6.617445E-13
        15   7 -5.042815E+05 -2.842883E+05 -1.577140E+05  2.256701E+05 -5.293956E-12 -1.588187E-11
        15   8 -5.110009E+05 -2.829233E+05 -1.587848E+05  2.282406E+05  0.000000E+00 -7.940934E-12
        15   9 -5.180832E+05 -2.818280E+05 -1.599822E+05  2.306026E+05  4.632211E-12 -6.617445E-12
        15  10 -5.212493E+05 -2.990221E+05 -1.640543E+05  2.551272E+05  0.000000E+00  6.617445E-13
        15  11 -5.238935E+05 -3.007315E+05 -1.649250E+05  2.581223E+05  1.985233E-12  1.323489E-12
        15  12 -5.269310E+05 -3.028337E+05 -1.659529E+05  2.608713E+05  2.481542E-13 -1.240771E-12
        15  13 -5.114378E+05 -2.906895E+05 -1.604255E+05  2.397346E+05  0.000000E+00 -1.323489E-12
        15  14 -5.161329E+05 -2.908258E+05 -1.613917E+05  2.425039E+05  1.323489E-12  1.323489E-12
        15  15 -5.212061E+05 -2.912912E+05 -1.624995E+05  2.450461E+05  9.926167E-13 -1.654361E-12
        15  16 -5.042815E+05 -2.842883E+05 -1.577140E+05  2.256701E+05 -6.617445E-13 -1.323489E-12
        15  17 -5.110009E+05 -2.829233E+05 -1.587848E+05  2.282406E+05 -6.617445E-13 -6.617445E-13
        15  18 -5.180832E+05 -2.818280E+05 -1.599822E+05  2.306026E+05 -1.654361E-13 -1.240771E-12
        15  19 -5.212493E+05 -2.990221E+05 -1.640543E+05  2.551272E+05  4.632211E-12  1.124966E-11
        15  20 -5.238935E+05 -3.007315E+05 -1.649250E+05  2.581223E+05 -1.985233E-12 -2.316106E-12
        15  21 -5.269310E+05 -3.028337E+05 -1.659529E+05  2.608713E+05 -4.714929E-12 -4.135903E-13
        15  22 -5.114378E+05 -2.906895E+05 -1.604255E+05  2.397346E+05  0.000000E+00  5.293956E-12
        15  23 -5.161329E+05 -2.908258E+05 -1.613917E+05  2.425039E+05  5.293956E-12  5.293956E-12
        15  24 -5.212061E+05 -2.912912E+05 -1.624995E+05  2.450461E+05  4.632211E-12 -4.632211E-12
        15  25 -5.042815E+05 -2.842883E+05 -1.577140E+05  2.256701E+05  5.293956E-12  5.293956E-12
        15  26 -5.110009E+05 -2.829233E+05 -1.587848E+05  2.282406E+05  5.293956E-12  2.646978E-12
        15  27 -5.180832E+05 -2.818280E+05 -1.599822E+05  2.306026E+05 -4.632211E-12  6.617445E-12
        16   1 -5.059114E+05 -2.899798E+05 -1.591782E+05  2.423191E+05  8.602678E-12 -5.293956E-12
        16   2 -5.120905E+05 -2.933847E+05 -1.610950E+05  2.475950E+05 -1.985233E-12 -2.448455E-11
        16   3 -5.183867E+05 -2.973957E+05 -1.631565E+05  2.527256E+05 -1.323489E-12  1.050519E-11
        16   4 -4.921022E+05 -2.859937E+05 -1.556192E+05  2.278601E+05 -7.940934E-12  1.058791E-11
        16   5 -4.997791E+05 -2.877588E+05 -1.575076E+05  2.327709E+05 -7.940934E-12  9.264423E-12
        16   6 -5.075832E+05 -2.900645E+05 -1.595295E+05  2.375371E+05  2.216844E-11  9.264423E-12
        16   7 -4.807565E+05 -2.836857E+05 -1.528884E+05  2.145800E+05 -5.293956E-12 -5.293956E-12
        16   8 -4.899563E+05 -2.838803E+05 -1.547673E+05  2.191624E+05 -5.293956E-12 -5.293956E-12
        16   9 -4.992936E+05 -2.845539E+05 -1.567695E+05  2.236019E+05 -5.293956E-12 -7.940934E-12
        16  10 -5.059114E+05 -2.899798E+05 -1.591782E+05  2.423191E+05  0.000000E+00  1.323489E-12
        16  11 -5.120905E+05 -2.933847E+05 -1.610950E+05  2.475950E+05  3.308722E-13 -1.323489E-12
        16  12 -5.183867E+05 -2.973957E+05 -1.631565E+05  2.527256E+05  1.240771E-12  6.617445E-13
        16  13 -4.921022E+05 -2.859937E+05 -1.556192E+05  2.278601E+05  0.000000E+00 -2.646978E-12
        16  14 -4.997791E+05 -2.877588E+05 -1.575076E+05  2.327709E+05 -1.323489E-12 -1.323489E-12
        16  15 -5.075832E+05 -2.900645E+05 -1.595295E+05  2.375371E+05 -6.617445E-13 -3.308722E-13
        16  16 -4.807565E+05 -2.836857E+05 -1.528884E+05  2.145800E+05 -6.617445E-13  6.617445E-13
        16  17 -4.899563E+05 -2.838803E+05 -1.547673E+05  2.191624E+05 -3.308722E-13  6.617445E-13
        16  18 -4.992936E+05 -2.845539E+05 -1.567695E+05  2.236019E+05  1.902515E-12 -3.308722E-13
        16  19 -5.059114E+05 -2.899798E+05 -1.591782E+05  2.423191E+05  1.985233E-12 -5.293956E-12
        16  20 -5.120905E+05 -2.933847E+05 -1.610950E+05  2.475950E+05 -8.602678E-12  3.308722E-12
        16  21 -5.183867E+05 -2.973957E+05 -1.631565E+05  2.527256E+05  6.617445E-12  1.067063E-11
        16  22 -4.921022E+05 -2.859937E+05 -1.556192E+05  2.278601E+05 -2.646978E-12  5.293956E-12
        16  23 -4.997791E+05 -2.877588E+05 -1.575076E+05  2.327709E+05 -2.646978E-12 -9.264423E-12
        16  24 -5.075832E+05 -2.900645E+05 -1.595295E+05  2.375371E+05 -6.286573E-12  1.191140E-11
        16  25 -4.807565E+05 -2.836857E+05 -1.528884E+05  2.145800E+05 -1.058791E-11  1.058791E-11
        16  26 -4.899563E+05 -2.838803E+05 -1.547673E+05  2.191624E+05 -5.293956E-12  5.293956E-12
        16  27 -4.992936E+05 -2.845539E+05 -1.567695E+05  2.236019E+05  0.000000E+00  7.940934E-12
        17   1 -3.057966E+05 -2.910863E+05 -1.193766E+05  6.706646E+04  0.000000E+00  7.940934E-12
        17   2 -2.970236E+05 -2.920560E+05 -1.178159E+05  5.336938E+04  8.271806E-12 -2.646978E-12
        17   3 -2.892619E+05 -2.933324E+05 -1.165188E+05  3.944756E+04  8.602678E-12 -1.158053E-12
        17   4 -3.070378E+05 -2.869799E+05 -1.188035E+05  6.691008E+04  5.293956E-12  1.588187E-11
        17   5 -2.983895E+05 -2.873907E+05 -1.171560E+05  5.352081E+04  0.000000E+00  5.293956E-12
        17   6 -2.907365E+05 -2.881169E+05 -1.157707E+05  3.989649E+04  1.985233E-12  0.000000E+00
        17   7 -3.083023E+05 -2.829036E+05 -1.182412E+05  6.681174E+04  5.293956E-12  0.000000E+00
        17   8 -2.997752E+05 -2.827502E+05 -1.165051E+05  5.372356E+04  1.323489E-11 -2.646978E-11
        17   9 -2.922275E+05 -2.829213E+05 -1.150298E+05  4.039044E+04  1.985233E-12 -6.617445E-12
        17  10 -3.057966E+05 -2.910863E+05 -1.193766E+05  6.706646E+04  0.000000E+00  1.323489E-12
        17  11 -2.970236E+05 -2.920560E+05 -1.178159E+05  5.336938E+04  0.000000E+00  1.985233E-12
        17  12 -2.892619E+05 -2.933324E+05 -1.165188E+05  3.944756E+04  6.617445E-13  1.158053E-12
        17  13 -3.070378E+05 -2.869799E+05 -1.188035E+05  6.691008E+04  1.323489E-12  0.000000E+00
        17  14 -2.983895E+05 -2.873907E+05 -1.171560E+05  5.352081E+04  0.000000E+00  5.293956E-12
        17  15 -2.907365E+05 -2.881169E+05 -1.157707E+05  3.989649E+04 -8.271806E-13  0.000000E+00
        17  16 -3.083023E+05 -2.829036E+05 -1.182412E+05  6.681174E+04  6.617445E-13  0.000000E+00
        17  17 -2.997752E+05 -2.827502E+05 -1.165051E+05  5.372356E+04  6.617445E-13  3.308722E-12
        17  18 -2.922275E+05 -2.829213E+05 -1.150298E+05  4.039044E+04  8.271806E-13 -3.308722E-13
        17  19 -3.057966E+05 -2.910863E+05 -1.193766E+05  6.706646E+04  5.293956E-12 -7.940934E-12
        17  20 -2.970236E+05 -2.920560E+05 -1.178159E+05  5.336938E+04 -2.977850E-12 -7.940934E-12
        17  21 -2.892619E+05 -2.933324E+05 -1.165188E+05  3.944756E+04 -6.617445E-13 -9.429859E-12
        17  22 -3.070378E+05 -2.869799E+05 -1.188035E+05  6.691008E+04 -1.588187E-11 -5.293956E-12
        17  23 -2.983895E+05 -2.873907E+05 -1.171560E+05  5.352081E+04  0.000000E+00  5.293956E-12
        17  24 -2.907365E+05 -2.881169E+05 -1.157707E+05  3.989649E+04 -1.985233E-12  1.058791E-11
        17  25 -3.083023E+05 -2.829036E+05 -1.182412E+05  6.681174E+04 -5.293956E-12 -1.058791E-11
        17  26 -2.997752E+05 -2.827502E+05 -1.165051E+05  5.372356E+04 -7.940934E-12  5.293956E-12
        17  27 -2.922275E+05 -2.829213E+05 -1.150298E+05  4.039044E+04 -1.985233E-12  1.720536E-11
        18   1 -2.852755E+05 -2.939907E+05 -1.158532E+05  3.103482E+04  8.933551E-12  1.455838E-11
        18   2 -2.790888E+05 -2.942574E+05 -1.146692E+05  1.748851E+04  3.474159E-12 -2.117582E-11
        18   3 -2.731515E+05 -2.945862E+05 -1.135475E+05  3.939071E+03  6.658804E-12  4.632211E-12
        18   4 -2.865414E+05 -2.882473E+05 -1.149577E+05  3.173908E+04  9.264423E-12 -5.293956E-12
        18   5 -2.796102E+05 -2.882538E+05 -1.135728E+05  1.790048E+04 -5.293956E-12  1.058791E-11
        18   6 -2.730123E+05 -2.883432E+05 -1.122711E+05  4.055293E+03 -2.977850E-12 -2.646978E-12
        18   7 -2.877770E+05 -2.825876E+05 -1.140729E+05  3.222390E+04  5.293956E-12  0.000000E+00
        18   8 -2.801268E+05 -2.823432E+05 -1.124940E+05  1.812331E+04  5.293956E-12  2.646978E-11
        18   9 -2.728875E+05 -2.822007E+05 -1.110176E+05  4.011642E+03  2.316106E-12 -1.058791E-11
        18  10 -2.852755E+05 -2.939907E+05 -1.158532E+05  3.103482E+04  6.617445E-13  0.000000E+00
        18  11 -2.790888E+05 -2.942574E+05 -1.146692E+05  1.748851E+04  6.617445E-13 -2.646978E-12
        18  12 -2.731515E+05 -2.945862E+05 -1.135475E+05  3.939071E+03 -5.376674E-13  1.654361E-13
        18  13 -2.865414E+05 -2.882473E+05 -1.149577E+05  3.173908E+04  1.323489E-12  0.000000E+00
        18  14 -2.796102E+05 -2.882538E+05 -1.135728E+05  1.790048E+04  1.323489E-12 -3.970467E-12
        18  15 -2.730123E+05 -2.883432E+05 -1.122711E+05  4.055293E+03 -9.926167E-13 -1.654361E-12
        18  16 -2.877770E+05 -2.825876E+05 -1.140729E+05  3.222390E+04 -3.308722E-13  1.323489E-12
        18  17 -2.801268E+05 -2.823432E+05 -1.124940E+05  1.812331E+04 -6.617445E-13  3.308722E-12
        18  18 -2.728875E+05 -2.822007E+05 -1.110176E+05  4.011642E+03  2.895132E-13  8.271806E-13
        18  19 -2.852755E+05 -2.939907E+05 -1.158532E+05  3.103482E+04 -6.286573E-12 -2.514629E-11
        18  20 -2.790888E+05 -2.942574E+05 -1.146692E+05  1.748851E+04 -8.271806E-13  3.176374E-11
        18  21 -2.731515E+05 -2.945862E+05 -1.135475E+05  3.939071E+03 -1.364848E-12 -4.632211E-12
        18  22 -2.865414E+05 -2.882473E+05 -1.149577E+05  3.173908E+04 -1.323489E-12 -1.588187E-11
        18  23 -2.796102E+05 -2.882538E+05 -1.135728E+05  1.790048E+04  5.293956E-12  1.058791E-11
        18  24 -2.730123E+05 -2.883432E+05 -1.122711E+05  4.055293E+03 -4.963084E-12  2.382280E-11
        18  25 -2.877770E+05 -2.825876E+05 -1.140729E+05  3.222390E+04 -1.058791E-11  0.000000E+00
        18  26 -2.801268E+05 -2.823432E+05 -1.124940E+05  1.812331E+04 -5.293956E-12 -5.293956E-12
        18  27 -2.728875E+05 -2.822007E+05 -1.110176E+05  4.011642E+03 -2.316106E-12  2.117582E-11
        19   1 -2.883766E+05 -2.791697E+05 -1.135093E+05  3.302355E+04  9.926167E-13 -1.323489E-12
        19   2 -2.805864E+05 -2.788439E+05 -1.118861E+05  1.861023E+04 -2.977850E-12 -7.940934E-12
        19   3 -2.725182E+05 -2.784603E+05 -1.101957E+05  4.162415E+03 -2.481542E-13 -4.963084E-13
        19   4 -2.896178E+05 -2.732474E+05 -1.125730E+05  3.486010E+04  2.646978E-12  0.000000E+00
        19   5 -2.812374E+05 -2.727062E+05 -1.107887E+05  1.964298E+04  1.323489E-12  4.764560E-11
        19   6 -2.727856E+05 -2.721583E+05 -1.089888E+05  4.388695E+03  9.595295E-12  1.588187E-11
        19   7 -2.908261E+05 -2.673059E+05 -1.116264E+05  3.661401E+04  0.000000E+00 -1.058791E-11
        19   8 -2.818858E+05 -2.665685E+05 -1.096909E+05  2.066314E+04  7.940934E-12 -1.588187E-11
        19   9 -2.730610E+05 -2.658702E+05 -1.077862E+05  4.671750E+03 -1.985233E-12 -6.617445E-12
        19  10 -2.883766E+05 -2.791697E+05 -1.135093E+05  3.302355E+04 -1.323489E-12  0.000000E+00
        19  11 -2.805864E+05 -2.788439E+05 -1.118861E+05  1.861023E+04 -6.617445E-13  1.985233E-12
        19  12 -2.725182E+05 -2.784603E+05 -1.101957E+05  4.162415E+03  1.654361E-13 -1.323489E-12
        19  13 -2.896178E+05 -2.732474E+05 -1.125730E+05  3.486010E+04  1.323489E-12 -5.293956E-12
        19  14 -2.812374E+05 -2.727062E+05 -1.107887E+05  1.964298E+04 -2.646978E-12  0.000000E+00
        19  15 -2.727856E+05 -2.721583E+05 -1.089888E+05  4.388695E+03 -9.926167E-13  3.308722E-12
        19  16 -2.908261E+05 -2.673059E+05 -1.116264E+05  3.661401E+04  0.000000E+00  0.000000E+00
        19  17 -2.818858E+05 -2.665685E+05 -1.096909E+05  2.066314E+04 -3.308722E-13  1.323489E-12
        19  18 -2.730610E+05 -2.658702E+05 -1.077862E+05  4.671750E+03  8.271806E-13 -1.985233E-12
        19  19 -2.883766E+05 -2.791697E+05 -1.135093E+05  3.302355E+04 -1.158053E-11 -9.264423E-12
        19  20 -2.805864E+05 -2.788439E+05 -1.118861E+05  1.861023E+04 -2.316106E-12 -2.646978E-12
        19  21 -2.725182E+05 -2.784603E+05 -1.101957E+05  4.162415E+03  2.481542E-13  4.963084E-13
        19  22 -2.896178E+05 -2.732474E+05 -1.125730E+05  3.486010E+04 -2.646978E-12  1.058791E-11
        19  23 -2.812374E+05 -2.727062E+05 -1.107887E+05  1.964298E+04 -1.323489E-12 -5.293956E-12
        19  24 -2.727856E+05 -2.721583E+05 -1.089888E+05  4.388695E+03 -4.301339E-12  1.588187E-11
        19  25 -2.908261E+05 -2.673059E+05 -1.116264E+05  3.661401E+04  0.000000E+00  1.058791E-11
        19  26 -2.818858E+05 -2.665685E+05 -1.096909E+05  2.066314E+04 -2.646978E-12  5.293956E-12
        19  27 -2.730610E+05 -2.658702E+05 -1.077862E+05  4.671750E+03 -8.602678E-12  6.617445E-12
        20   1 -3.094884E+05 -2.799952E+05 -1.178967E+05  6.825078E+04  1.191140E-11 -2.779327E-11
        20   2 -3.008550E+05 -2.796854E+05 -1.161081E+05  5.486390E+04  7.279189E-12  2.646978E-12
        20   3 -2.929055E+05 -2.795937E+05 -1.144998E+05  4.132520E+04 -6.534727E-12  4.466775E-12
        20   4 -3.125512E+05 -2.744652E+05 -1.174033E+05  7.238672E+04 -5.293956E-12 -2.117582E-11
        20   5 -3.029997E+05 -2.739370E+05 -1.153873E+05  5.807178E+04  0.000000E+00  7.940934E-12
        20   6 -2.944303E+05 -2.736973E+05 -1.136255E+05  4.358861E+04  4.963084E-12  6.617445E-13
        20   7 -3.154779E+05 -2.689068E+05 -1.168769E+05  7.637552E+04  0.000000E+00  0.000000E+00
        20   8 -3.051074E+05 -2.681748E+05 -1.146564E+05  6.122825E+04  1.588187E-11  1.588187E-11
        20   9 -2.959758E+05 -2.677916E+05 -1.127535E+05  4.590250E+04 -4.632211E-12  1.058791E-11
        20  10 -3.094884E+05 -2.799952E+05 -1.178967E+05  6.825078E+04  0.000000E+00 -1.323489E-12
        20  11 -3.008550E+05 -2.796854E+05 -1.161081E+05  5.486390E+04 -9.926167E-13  3.970467E-12
        20  12 -2.929055E+05 -2.795937E+05 -1.144998E+05  4.132520E+04 -8.271806E-13 -2.812414E-12
        20  13 -3.125512E+05 -2.744652E+05 -1.174033E+05  7.238672E+04  1.323489E-12 -2.646978E-12
        20  14 -3.029997E+05 -2.739370E+05 -1.153873E+05  5.807178E+04 -2.646978E-12  2.646978E-12
        20  15 -2.944303E+05 -2.736973E+05 -1.136255E+05  4.358861E+04  1.488925E-12 -3.308722E-12
        20  16 -3.154779E+05 -2.689068E+05 -1.168769E+05  7.637552E+04 -1.323489E-12  3.970467E-12
        20  17 -3.051074E+05 -2.681748E+05 -1.146564E+05  6.122825E+04 -2.316106E-12  2.646978E-12
        20  18 -2.959758E+05 -2.677916E+05 -1.127535E+05  4.590250E+04  0.000000E+00 -1.488925E-12
        20  19 -3.094884E+05 -2.799952E+05 -1.178967E+05  6.825078E+04 -1.323489E-12  2.779327E-11
        20  20 -3.008550E+05 -2.796854E+05 -1.161081E+05  5.486390E+04 -7.279189E-12  1.852885E-11
        20  21 -2.929055E+05 -2.795937E+05 -1.144998E+05  4.132520E+04  6.534727E-12 -4.466775E-12
        20  22 -3.125512E+05 -2.744652E+05 -1.174033E+05  7.238672E+04  0.000000E+00  1.058791E-11
        20  23 -3.029997E+05 -2.739370E+05 -1.153873E+05  5.807178E+04  0.000000E+00  2.646978E-12
        20  24 -2.944303E+05 -2.736973E+05 -1.136255E+05  4.358861E+04 -4.963084E-12  2.051408E-11
        20  25 -3.154779E+05 -2.689068E+05 -1.168769E+05  7.637552E+04 -5.293956E-12  0.000000E+00
        20  26 -3.051074E+05 -2.681748E+05 -1.146564E+05  6.122825E+04 -5.293956E-12 -5.293956E-12
        20  27 -2.959758E+05 -2.677916E+05 -1.127535E+05  4.590250E+04 -6.617445E-13 -1.058791E-11
        21   1 -2.732808E+05 -2.621727E+05 -1.070907E+05  4.729482E+03  8.271806E-12 -1.323489E-12
        21   2 -2.740078E+05 -2.558391E+05 -1.059694E+05  4.449978E+03  2.646978E-12  3.507246E-11
        21   3 -2.747160E+05 -2.494224E+05 -1.048277E+05  4.351525E+03  1.447566E-12  2.382280E-11
        21   4 -2.821374E+05 -2.628612E+05 -1.089997E+05  2.083592E+04  2.646978E-12  5.293956E-12
        21   5 -2.821419E+05 -2.562881E+05 -1.076860E+05  2.005427E+04  0.000000E+00  3.176374E-11
        21   6 -2.821125E+05 -2.496254E+05 -1.063476E+05  1.939032E+04  1.654361E-12 -1.389663E-11
        21   7 -2.905600E+05 -2.634497E+05 -1.108019E+05  3.692924E+04  5.293956E-12  2.117582E-11
        21   8 -2.900053E+05 -2.566757E+05 -1.093362E+05  3.563689E+04 -2.646978E-12  1.058791E-11
        21   9 -2.894165E+05 -2.498090E+05 -1.078451E+05  3.440196E+04  2.646978E-12  1.323489E-11
        21  10 -2.732808E+05 -2.621727E+05 -1.070907E+05  4.729482E+03  9.926167E-13  0.000000E+00
        21  11 -2.740078E+05 -2.558391E+05 -1.059694E+05  4.449978E+03 -6.617445E-13  1.323489E-12
        21  12 -2.747160E+05 -2.494224E+05 -1.048277E+05  4.351525E+03  3.722313E-13  8.271806E-13
        21  13 -2.821374E+05 -2.628612E+05 -1.089997E+05  2.083592E+04  1.323489E-12 -2.646978E-12
        21  14 -2.821419E+05 -2.562881E+05 -1.076860E+05  2.005427E+04 -3.308722E-12  5.293956E-12
        21  15 -2.821125E+05 -2.496254E+05 -1.063476E+05  1.939032E+04  0.000000E+00 -2.646978E-12
        21  16 -2.905600E+05 -2.634497E+05 -1.108019E+05  3.692924E+04 -3.308722E-13  0.000000E+00
        21  17 -2.900053E+05 -2.566757E+05 -1.093362E+05  3.563689E+04  9.926167E-13  4.632211E-12
        21  18 -2.894165E+05 -2.498090E+05 -1.078451E+05  3.440196E+04 -4.549493E-13  3.474159E-12
        21  19 -2.732808E+05 -2.621727E+05 -1.070907E+05  4.729482E+03 -5.624828E-12  2.249931E-11
        21  20 -2.740078E+05 -2.558391E+05 -1.059694E+05  4.449978E+03 -7.940934E-12  7.279189E-12
        21  21 -2.747160E+05 -2.494224E+05 -1.048277E+05  4.351525E+03 -1.447566E-12 -2.646978E-12
        21  22 -2.821374E+05 -2.628612E+05 -1.089997E+05  2.083592E+04 -2.646978E-12 -5.293956E-12
        21  23 -2.821419E+05 -2.562881E+05 -1.076860E+05  2.005427E+04  0.000000E+00 -2.117582E-11
        21  24 -2.821125E+05 -2.496254E+05 -1.063476E+05  1.939032E+04  3.639595E-12  2.448455E-11
        21  25 -2.905600E+05 -2.634497E+05 -1.108019E+05  3.692924E+04 -1.058791E-11  0.000000E+00
        21  26 -2.900053E+05 -2.566757E+05 -1.093362E+05  3.563689E+04 -2.646978E-12  0.000000E+00
        21  27 -2.894165E+05 -2.498090E+05 -1.078451E+05  3.440196E+04  2.646978E-12 -2.646978E-12
        22   1 -2.755305E+05 -2.457690E+05 -1.042599E+05  4.245320E+03  5.293956E-12  2.117582E-11
        22   2 -2.768737E+05 -2.394883E+05 -1.032724E+05  3.810122E+03  6.617445E-12  1.919059E-11
        22   3 -2.782046E+05 -2.331401E+05 -1.022690E+05  3.715791E+03  6.617445E-13 -3.589964E-11
        22   4 -2.822598E+05 -2.458272E+05 -1.056174E+05  1.897403E+04  1.323489E-11 -5.293956E-12
        22   5 -2.826068E+05 -2.394476E+05 -1.044109E+05  1.800744E+04 -6.617445E-12  1.852885E-11
        22   6 -2.829116E+05 -2.330043E+05 -1.031832E+05  1.733635E+04 -4.963084E-12  6.617445E-13
        22   7 -2.887823E+05 -2.458378E+05 -1.069240E+05  3.366544E+04  0.000000E+00 -3.176374E-11
        22   8 -2.882439E+05 -2.393870E+05 -1.055262E+05  3.216156E+04  1.058791E-11  4.235165E-11
        22   9 -2.876438E+05 -2.328788E+05 -1.041045E+05  3.090765E+04  5.293956E-12 -1.323489E-12
        22  10 -2.755305E+05 -2.457690E+05 -1.042599E+05  4.245320E+03 -6.617445E-13 -3.970467E-12
        22  11 -2.768737E+05 -2.394883E+05 -1.032724E+05  3.810122E+03 -1.323489E-12  6.617445E-13
        22  12 -2.782046E+05 -2.331401E+05 -1.022690E+05  3.715791E+03  5.790264E-13 -8.271806E-13
        22  13 -2.822598E+05 -2.458272E+05 -1.056174E+05  1.897403E+04  0.000000E+00  0.000000E+00
        22  14 -2.826068E+05 -2.394476E+05 -1.044109E+05  1.800744E+04 -1.323489E-12  2.646978E-12
        22  15 -2.829116E+05 -2.330043E+05 -1.031832E+05  1.733635E+04  8.271806E-13  6.617445E-13
        22  16 -2.887823E+05 -2.458378E+05 -1.069240E+05  3.366544E+04 -1.323489E-12 -1.323489E-12
        22  17 -2.882439E+05 -2.393870E+05 -1.055262E+05  3.216156E+04 -9.926167E-13 -1.985233E-12
        22  18 -2.876438E+05 -2.328788E+05 -1.041045E+05  3.090765E+04  4.135903E-13  1.488925E-12
        22  19 -2.755305E+05 -2.457690E+05 -1.042599E+05  4.245320E+03  2.646978E-12 -1.058791E-11
        22  20 -2.768737E+05 -2.394883E+05 -1.032724E+05  3.810122E+03 -1.191140E-11 -8.602678E-12
        22  21 -2.782046E+05 -2.331401E+05 -1.022690E+05  3.715791E+03 -6.617445E-13  1.472381E-11
        22  22 -2.822598E+05 -2.458272E+05 -1.056174E+05  1.897403E+04 -7.940934E-12  1.588187E-11
        22  23 -2.826068E+05 -2.394476E+05 -1.044109E+05  1.800744E+04  6.617445E-12 -1.852885E-11
        22  24 -2.829116E+05 -2.330043E+05 -1.031832E+05  1.733635E+04 -3.308722E-13  2.051408E-11
        22  25 -2.887823E+05 -2.458378E+05 -1.069240E+05  3.366544E+04  0.000000E+00 -1.058791E-11
        22  26 -2.882439E+05 -2.393870E+05 -1.055262E+05  3.216156E+04 -1.058791E-11  2.117582E-11
        22  27 -2.876438E+05 -2.328788E+05 -1.041045E+05  3.090765E+04  0.000000E+00  1.191140E-11
        23   1 -2.926365E+05 -2.457797E+05 -1.076832E+05  4.172996E+04 -1.985233E-12  1.323489E-12
        23   2 -2.915536E+05 -2.391009E+05 -1.061309E+05  3.977040E+04  3.639595E-12 -3.970467E-12
        23   3 -2.904223E+05 -2.325479E+05 -1.045940E+05  3.812834E+04 -4.135903E-12 -2.481542E-11
        23   4 -2.994624E+05 -2.449507E+05 -1.088826E+05  5.445658E+04  1.058791E-11 -1.588187E-11
        23   5 -2.974350E+05 -2.380463E+05 -1.070963E+05  5.183719E+04 -1.323489E-12  0.000000E+00
        23   6 -2.953444E+05 -2.312614E+05 -1.053212E+05  4.948220E+04 -8.933551E-12 -1.852885E-11
        23   7 -3.063800E+05 -2.441473E+05 -1.101055E+05  6.719965E+04  1.588187E-11  0.000000E+00
        23   8 -3.035206E+05 -2.370460E+05 -1.081133E+05  6.392517E+04  5.293956E-12  0.000000E+00
        23   9 -3.005930E+05 -2.300604E+05 -1.061307E+05  6.086322E+04 -6.617445E-13 -1.720536E-11
        23  10 -2.926365E+05 -2.457797E+05 -1.076832E+05  4.172996E+04  0.000000E+00  2.646978E-12
        23  11 -2.915536E+05 -2.391009E+05 -1.061309E+05  3.977040E+04 -1.654361E-12 -1.323489E-12
        23  12 -2.904223E+05 -2.325479E+05 -1.045940E+05  3.812834E+04 -2.481542E-13 -2.812414E-12
        23  13 -2.994624E+05 -2.449507E+05 -1.088826E+05  5.445658E+04 -1.323489E-12  0.000000E+00
        23  14 -2.974350E+05 -2.380463E+05 -1.070963E+05  5.183719E+04  3.308722E-12  2.646978E-12
        23  15 -2.953444E+05 -2.312614E+05 -1.053212E+05  4.948220E+04 -1.488925E-12 -1.058791E-11
        23  16 -3.063800E+05 -2.441473E+05 -1.101055E+05  6.719965E+04  0.000000E+00  2.646978E-12
        23  17 -3.035206E+05 -2.370460E+05 -1.081133E+05  6.392517E+04 -1.323489E-12 -1.985233E-12
        23  18 -3.005930E+05 -2.300604E+05 -1.061307E+05  6.086322E+04 -1.158053E-12  1.158053E-12
        23  19 -2.926365E+05 -2.457797E+05 -1.076832E+05  4.172996E+04  1.985233E-12 -3.308722E-11
        23  20 -2.915536E+05 -2.391009E+05 -1.061309E+05  3.977040E+04 -8.933551E-12  3.970467E-12
        23  21 -2.904223E+05 -2.325479E+05 -1.045940E+05  3.812834E+04 -1.158053E-12  1.422751E-11
        23  22 -2.994624E+05 -2.449507E+05 -1.088826E+05  5.445658E+04  0.000000E+00 -1.588187E-11
        23  23 -2.974350E+05 -2.380463E+05 -1.070963E+05  5.183719E+04 -9.264423E-12 -2.117582E-11
        23  24 -2.953444E+05 -2.312614E+05 -1.053212E+05  4.948220E+04  3.639595E-12 -2.382280E-11
        23  25 -3.063800E+05 -2.441473E+05 -1.101055E+05  6.719965E+04 -1.058791E-11  1.058791E-11
        23  26 -3.035206E+05 -2.370460E+05 -1.081133E+05  6.392517E+04 -5.293956E-12  1.058791E-11
        23  27 -3.005930E+05 -2.300604E+05 -1.061307E+05  6.086322E+04  6.617445E-13  6.617445E-12
        24   1 -2.957732E+05 -2.639736E+05 -1.119494E+05  4.610708E+04  3.970467E-12 -1.852885E-11
        24   2 -2.946863E+05 -2.570994E+05 -1.103571E+05  4.409269E+04  1.290402E-11  1.852885E-11
        24   3 -2.933799E+05 -2.498991E+05 -1.086558E+05  4.261179E+04 -4.714929E-12  1.836341E-11
        24   4 -3.054142E+05 -2.643868E+05 -1.139602E+05  6.144026E+04  0.000000E+00 -4.235165E-11
        24   5 -3.029252E+05 -2.568952E+05 -1.119641E+05  5.851194E+04  6.617445E-12  1.058791E-11
        24   6 -3.002580E+05 -2.491360E+05 -1.098788E+05  5.589707E+04  9.926167E-12 -1.389663E-11
        24   7 -3.151597E+05 -2.648348E+05 -1.159989E+05  7.673685E+04  1.058791E-11 -2.117582E-11
        24   8 -3.117186E+05 -2.568334E+05 -1.137104E+05  7.287782E+04  2.382280E-11 -1.588187E-11
        24   9 -3.081756E+05 -2.486246E+05 -1.113600E+05  6.914037E+04  1.588187E-11 -1.323489E-11
        24  10 -2.957732E+05 -2.639736E+05 -1.119494E+05  4.610708E+04 -6.617445E-13 -1.323489E-12
        24  11 -2.946863E+05 -2.570994E+05 -1.103571E+05  4.409269E+04  9.926167E-13  1.985233E-12
        24  12 -2.933799E+05 -2.498991E+05 -1.086558E+05  4.261179E+04 -1.406207E-12 -8.271806E-13
        24  13 -3.054142E+05 -2.643868E+05 -1.139602E+05  6.144026E+04  0.000000E+00  2.646978E-12
        24  14 -3.029252E+05 -2.568952E+05 -1.119641E+05  5.851194E+04  0.000000E+00  2.646978E-12
        24  15 -3.002580E+05 -2.491360E+05 -1.098788E+05  5.589707E+04 -3.308722E-13  4.301339E-12
        24  16 -3.151597E+05 -2.648348E+05 -1.159989E+05  7.673685E+04  1.985233E-12  1.323489E-12
        24  17 -3.117186E+05 -2.568334E+05 -1.137104E+05  7.287782E+04 -2.316106E-12 -1.323489E-12
        24  18 -3.081756E+05 -2.486246E+05 -1.113600E+05  6.914037E+04  9.098987E-13  8.271806E-13
        24  19 -2.957732E+05 -2.639736E+05 -1.119494E+05  4.610708E+04 -9.264423E-12 -2.646978E-12
        24  20 -2.946863E+05 -2.570994E+05 -1.103571E+05  4.409269E+04 -1.290402E-11 -7.940934E-12
        24  21 -2.933799E+05 -2.498991E+05 -1.086558E+05  4.261179E+04  4.714929E-12 -7.775498E-12
        24  22 -3.054142E+05 -2.643868E+05 -1.139602E+05  6.144026E+04 -1.058791E-11  0.000000E+00
        24  23 -3.029252E+05 -2.568952E+05 -1.119641E+05  5.851194E+04 -6.617445E-12 -1.058791E-11
        24  24 -3.002580E+05 -2.491360E+05 -1.098788E+05  5.589707E+04 -1.522012E-11  2.448455E-11
        24  25 -3.151597E+05 -2.648348E+05 -1.159989E+05  7.673685E+04 -1.058791E-11  2.117582E-11
        24  26 -3.117186E+05 -2.568334E+05 -1.137104E+05  7.287782E+04 -1.852885E-11 -5.293956E-12
        24  27 -3.081756E+05 -2.486246E+05 -1.113600E+05  6.914037E+04 -1.058791E-11  2.646978E-12
        25   1 -2.793937E+05 -2.295683E+05 -1.017924E+05  3.555767E+03  4.632211E-12  3.970467E-12
        25   2 -2.807522E+05 -2.233239E+05 -1.008152E+05  3.075453E+03  6.617445E-12  3.242548E-11
        25   3 -2.821136E+05 -2.170535E+05 -9.983341E+04  2.963023E+03  3.143286E-12 -3.507246E-11
        25   4 -2.831927E+05 -2.293371E+05 -1.025060E+05  1.686880E+04  1.323489E-11 -1.058791E-11
        25   5 -2.836314E+05 -2.231636E+05 -1.013590E+05  1.592837E+04 -7.940934E-12  2.117582E-11
        25   6 -2.840557E+05 -2.169901E+05 -1.002092E+05  1.535525E+04  1.323489E-12 -2.977850E-11
        25   7 -2.872742E+05 -2.291798E+05 -1.032908E+05  3.014356E+04  5.293956E-12 -1.058791E-11
        25   8 -2.867982E+05 -2.230828E+05 -1.019762E+05  2.872911E+04 -2.646978E-12 -1.588187E-11
        25   9 -2.862900E+05 -2.170136E+05 -1.006607E+05  2.768051E+04  2.646978E-12  3.970467E-11
        25  10 -2.793937E+05 -2.295683E+05 -1.017924E+05  3.555767E+03  0.000000E+00 -1.323489E-12
        25  11 -2.807522E+05 -2.233239E+05 -1.008152E+05  3.075453E+03 -3.308722E-13  1.323489E-12
        25  12 -2.821136E+05 -2.170535E+05 -9.983341E+04  2.963023E+03  3.308722E-13 -3.639595E-12
        25  13 -2.831927E+05 -2.293371E+05 -1.025060E+05  1.686880E+04 -1.323489E-12  0.000000E+00
        25  14 -2.836314E+05 -2.231636E+05 -1.013590E+05  1.592837E+04 -1.985233E-12  5.293956E-12
        25  15 -2.840557E+05 -2.169901E+05 -1.002092E+05  1.535525E+04 -3.308722E-13  3.970467E-12
        25  16 -2.872742E+05 -2.291798E+05 -1.032908E+05  3.014356E+04  1.323489E-12  5.293956E-12
        25  17 -2.867982E+05 -2.230828E+05 -1.019762E+05  2.872911E+04  0.000000E+00  3.970467E-12
        25  18 -2.862900E+05 -2.170136E+05 -1.006607E+05  2.768051E+04  1.158053E-12 -2.150670E-12
        25  19 -2.793937E+05 -2.295683E+05 -1.017924E+05  3.555767E+03  6.617445E-13  1.720536E-11
        25  20 -2.807522E+05 -2.233239E+05 -1.008152E+05  3.075453E+03 -6.617445E-12  9.926167E-12
        25  21 -2.821136E+05 -2.170535E+05 -9.983341E+04  2.963023E+03  2.150670E-12  1.389663E-11
        25  22 -2.831927E+05 -2.293371E+05 -1.025060E+05  1.686880E+04 -7.940934E-12 -1.058791E-11
        25  23 -2.836314E+05 -2.231636E+05 -1.013590E+05  1.592837E+04  2.646978E-12 -4.235165E-11
        25  24 -2.840557E+05 -2.169901E+05 -1.002092E+05  1.535525E+04 -1.323489E-12  2.977850E-11
        25  25 -2.872742E+05 -2.291798E+05 -1.032908E+05  3.014356E+04  0.000000E+00 -1.058791E-11
        25  26 -2.867982E+05 -2.230828E+05 -1.019762E+05  2.872911E+04  2.646978E-12 -5.293956E-12
        25  27 -2.862900E+05 -2.170136E+05 -1.006607E+05  2.768051E+04  2.646978E-12  2.646978E-12
        26   1 -2.834974E+05 -2.136138E+05 -9.942224E+04  2.862440E+03  3.970467E-12  2.117582E-11
        26   2 -2.838886E+05 -2.073160E+05 -9.824092E+04  2.829170E+03  1.058791E-11  1.588187E-11
        26   3 -2.843097E+05 -2.010696E+05 -9.707585E+04  3.002525E+03  6.452009E-12  4.632211E-12
        26   4 -2.839790E+05 -2.133569E+05 -9.946718E+04  1.528586E+04  2.646978E-12  0.000000E+00
        26   5 -2.837545E+05 -2.071652E+05 -9.818394E+04  1.544960E+04  2.646978E-12  0.000000E+00
        26   6 -2.835791E+05 -2.009727E+05 -9.691035E+04  1.583035E+04  4.632211E-12 -4.168990E-11
        26   7 -2.860279E+05 -2.135062E+05 -9.990682E+04  2.759134E+04  1.058791E-11  2.117582E-11
        26   8 -2.851427E+05 -2.074045E+05 -9.850943E+04  2.795940E+04  1.058791E-11 -2.646978E-11
        26   9 -2.843319E+05 -2.012492E+05 -9.711622E+04  2.855451E+04 -1.985233E-12 -3.176374E-11
        26  10 -2.834974E+05 -2.136138E+05 -9.942224E+04  2.862440E+03  0.000000E+00 -2.646978E-12
        26  11 -2.838886E+05 -2.073160E+05 -9.824092E+04  2.829170E+03  1.654361E-12 -5.293956E-12
        26  12 -2.843097E+05 -2.010696E+05 -9.707585E+04  3.002525E+03  1.406207E-12 -4.963084E-12
        26  13 -2.839790E+05 -2.133569E+05 -9.946718E+04  1.528586E+04 -1.323489E-12  0.000000E+00
        26  14 -2.837545E+05 -2.071652E+05 -9.818394E+04  1.544960E+04 -6.617445E-13  0.000000E+00
        26  15 -2.835791E+05 -2.009727E+05 -9.691035E+04  1.583035E+04  1.488925E-12 -2.646978E-12
        26  16 -2.860279E+05 -2.135062E+05 -9.990682E+04  2.759134E+04  0.000000E+00 -2.646978E-12
        26  17 -2.851427E+05 -2.074045E+05 -9.850943E+04  2.795940E+04 -3.308722E-13  0.000000E+00
        26  18 -2.843319E+05 -2.012492E+05 -9.711622E+04  2.855451E+04  1.819797E-12  2.977850E-12
        26  19 -2.834974E+05 -2.136138E+05 -9.942224E+04  2.862440E+03 -3.970467E-12  2.117582E-11
        26  20 -2.838886E+05 -2.073160E+05 -9.824092E+04  2.829170E+03 -1.058791E-11  2.646978E-11
        26  21 -2.843097E+05 -2.010696E+05 -9.707585E+04  3.002525E+03  9.429859E-12  1.654361E-11
        26  22 -2.839790E+05 -2.133569E+05 -9.946718E+04  1.528586E+04 -2.646978E-12  0.000000E+00
        26  23 -2.837545E+05 -2.071652E+05 -9.818394E+04  1.544960E+04 -2.646978E-12  0.000000E+00
        26  24 -2.835791E+05 -2.009727E+05 -9.691035E+04  1.583035E+04  5.955700E-12  2.051408E-11
        26  25 -2.860279E+05 -2.135062E+05 -9.990682E+04  2.759134E+04 -1.058791E-11  0.000000E+00
        26  26 -2.851427E+05 -2.074045E+05 -9.850943E+04  2.795940E+04 -1.058791E-11  5.293956E-12
        26  27 -2.843319E+05 -2.012492E+05 -9.711622E+04  2.855451E+04  1.985233E-12 -1.058791E-11
        27   1 -2.872816E+05 -2.132507E+05 -1.001065E+05  3.329707E+04 -6.617445E-13 -1.058791E-11
        27   2 -2.859974E+05 -2.074127E+05 -9.868201E+04  3.364877E+04 -4.632211E-12  2.646978E-11
        27   3 -2.847726E+05 -2.008516E+05 -9.712482E+04  3.463588E+04  8.437242E-12  7.113753E-12
        27   4 -2.891778E+05 -2.123941E+05 -1.003144E+05  4.152700E+04  5.293956E-12 -2.117582E-11
        27   5 -2.870468E+05 -2.072056E+05 -9.885049E+04  4.050331E+04  2.646978E-12  2.117582E-11
        27   6 -2.848677E+05 -2.017487E+05 -9.732327E+04  3.981087E+04  3.639595E-12 -7.279189E-12
        27   7 -2.917237E+05 -2.116915E+05 -1.006830E+05  4.985743E+04  5.293956E-12  2.117582E-11
        27   8 -2.895509E+05 -2.073920E+05 -9.938859E+04  4.717225E+04  2.117582E-11  5.293956E-12
        27   9 -2.876439E+05 -2.037145E+05 -9.827169E+04  4.414569E+04  0.000000E+00 -7.014492E-11
        27  10 -2.872816E+05 -2.132507E+05 -1.001065E+05  3.329707E+04  0.000000E+00  2.646978E-12
        27  11 -2.859974E+05 -2.074127E+05 -9.868201E+04  3.364877E+04  9.926167E-13 -7.940934E-12
        27  12 -2.847726E+05 -2.008516E+05 -9.712482E+04  3.463588E+04 -1.323489E-12 -3.308722E-13
        27  13 -2.891778E+05 -2.123941E+05 -1.003144E+05  4.152700E+04  0.000000E+00 -5.293956E-12
        27  14 -2.870468E+05 -2.072056E+05 -9.885049E+04  4.050331E+04  0.000000E+00 -2.646978E-12
        27  15 -2.848677E+05 -2.017487E+05 -9.732327E+04  3.981087E+04 -2.150670E-12 -3.308722E-12
        27  16 -2.917237E+05 -2.116915E+05 -1.006830E+05  4.985743E+04  6.617445E-13  1.323489E-12
        27  17 -2.895509E+05 -2.073920E+05 -9.938859E+04  4.717225E+04  1.985233E-12 -2.646978E-12
        27  18 -2.876439E+05 -2.037145E+05 -9.827169E+04  4.414569E+04  6.617445E-13  3.308722E-12
        27  19 -2.872816E+05 -2.132507E+05 -1.001065E+05  3.329707E+04 -4.632211E-12  1.058791E-11
        27  20 -2.859974E+05 -2.074127E+05 -9.868201E+04  3.364877E+04 -5.955700E-12 -5.293956E-12
        27  21 -2.847726E+05 -2.008516E+05 -9.712482E+04  3.463588E+04  2.150670E-12  3.523789E-11
        27  22 -2.891778E+05 -2.123941E+05 -1.003144E+05  4.152700E+04  0.000000E+00  2.117582E-11
        27  23 -2.870468E+05 -2.072056E+05 -9.885049E+04  4.050331E+04 -2.646978E-12  2.117582E-11
        27  24 -2.848677E+05 -2.017487E+05 -9.732327E+04  3.981087E+04 -8.933551E-12  7.279189E-12
        27  25 -2.917237E+05 -2.116915E+05 -1.006830E+05  4.985743E+04 -1.058791E-11  0.000000E+00
        27  26 -2.895509E+05 -2.073920E+05 -9.938859E+04  4.717225E+04 -1.058791E-11 -5.293956E-12
        27  27 -2.876439E+05 -2.037145E+05 -9.827169E+04  4.414569E+04  0.000000E+00  4.896909E-11
        28   1 -2.898475E+05 -2.288924E+05 -1.037480E+05  3.712153E+04  5.293956E-12  1.323489E-11
        28   2 -2.887791E+05 -2.227190E+05 -1.022996E+05  3.518137E+04  1.224227E-11  0.000000E+00
        28   3 -2.876442E+05 -2.165544E+05 -1.008397E+05  3.362736E+04  2.646978E-12 -2.249931E-11
        28   4 -2.942766E+05 -2.275620E+05 -1.043677E+05  4.799901E+04 -5.293956E-12  1.588187E-11
        28   5 -2.922329E+05 -2.214851E+05 -1.027436E+05  4.519690E+04  2.646978E-12 -2.646978E-12
        28   6 -2.901078E+05 -2.155133E+05 -1.011242E+05  4.268999E+04 -1.654361E-12 -8.602678E-12
        28   7 -2.986890E+05 -2.262291E+05 -1.049836E+05  5.888322E+04  5.293956E-12 -2.117582E-11
        28   8 -2.958474E+05 -2.202873E+05 -1.032269E+05  5.519159E+04 -5.293956E-12 -2.117582E-11
        28   9 -2.929427E+05 -2.145598E+05 -1.015005E+05  5.169376E+04  2.646978E-12 -1.191140E-11
        28  10 -2.898475E+05 -2.288924E+05 -1.037480E+05  3.712153E+04 -6.617445E-13 -1.323489E-12
        28  11 -2.887791E+05 -2.227190E+05 -1.022996E+05  3.518137E+04  0.000000E+00  2.646978E-12
        28  12 -2.876442E+05 -2.165544E+05 -1.008397E+05  3.362736E+04  3.308722E-13 -1.819797E-12
        28  13 -2.942766E+05 -2.275620E+05 -1.043677E+05  4.799901E+04  1.323489E-12  5.293956E-12
        28  14 -2.922329E+05 -2.214851E+05 -1.027436E+05  4.519690E+04 -3.308722E-12  7.940934E-12
        28  15 -2.901078E+05 -2.155133E+05 -1.011242E+05  4.268999E+04  1.323489E-12  6.617445E-13
        28  16 -2.986890E+05 -2.262291E+05 -1.049836E+05  5.888322E+04  0.000000E+00  0.000000E+00
        28  17 -2.958474E+05 -2.202873E+05 -1.032269E+05  5.519159E+04 -1.985233E-12 -1.323489E-12
        28  18 -2.929427E+05 -2.145598E+05 -1.015005E+05  5.169376E+04 -1.654361E-13  3.805031E-12
        28  19 -2.898475E+05 -2.288924E+05 -1.037480E+05  3.712153E+04  0.000000E+00  7.940934E-12
        28  20 -2.887791E+05 -2.227190E+05 -1.022996E+05  3.518137E+04 -6.948317E-12  2.117582E-11
        28  21 -2.876442E+05 -2.165544E+05 -1.008397E+05  3.362736E+04 -2.646978E-12  1.323489E-12
        28  22 -2.942766E+05 -2.275620E+05 -1.043677E+05  4.799901E+04  0.000000E+00  5.293956E-12
        28  23 -2.922329E+05 -2.214851E+05 -1.027436E+05  4.519690E+04 -7.940934E-12  2.646978E-12
        28  24 -2.901078E+05 -2.155133E+05 -1.011242E+05  4.268999E+04 -3.639595E-12  8.602678E-12
        28  25 -2.986890E+05 -2.262291E+05 -1.049836E+05  5.888322E+04 -1.058791E-11  2.117582E-11
        28  26 -2.958474E+05 -2.202873E+05 -1.032269E+05  5.519159E+04 -5.293956E-12  2.117582E-11
        28  27 -2.929427E+05 -2.145598E+05 -1.015005E+05  5.169376E+04 -7.940934E-12 -9.264423E-12
        29   1 -5.119676E+05 -2.408054E+05 -1.505546E+05  2.345712E+05  1.455838E-11 -1.323489E-12
        29   2 -5.222328E+05 -2.505320E+05 -1.545530E+05  2.460199E+05  1.323489E-11 -2.580804E-11
        29   3 -5.314652E+05 -2.612027E+05 -1.585336E+05  2.574515E+05  2.150670E-11  9.264423E-12
        29   4 -4.899185E+05 -2.491207E+05 -1.478078E+05  2.228200E+05  1.058791E-11 -2.117582E-11
        29   5 -4.999521E+05 -2.572288E+05 -1.514362E+05  2.326892E+05 -7.940934E-12  7.940934E-12
        29   6 -5.092213E+05 -2.663181E+05 -1.551079E+05  2.426478E+05 -4.632211E-12 -7.940934E-12
        29   7 -4.700196E+05 -2.581973E+05 -1.456434E+05  2.117589E+05  1.588187E-11 -1.058791E-11
        29   8 -4.799237E+05 -2.648324E+05 -1.489512E+05  2.201342E+05 -1.323489E-11 -1.588187E-11
        29   9 -4.892901E+05 -2.724669E+05 -1.523514E+05  2.286896E+05  8.602678E-12 -1.191140E-11
        29  10 -5.119676E+05 -2.408054E+05 -1.505546E+05  2.345712E+05  1.323489E-12  0.000000E+00
        29  11 -5.222328E+05 -2.505320E+05 -1.545530E+05  2.460199E+05 -1.985233E-12 -3.308722E-12
        29  12 -5.314652E+05 -2.612027E+05 -1.585336E+05  2.574515E+05  2.977850E-12  3.308722E-12
        29  13 -4.899185E+05 -2.491207E+05 -1.478078E+05  2.228200E+05  0.000000E+00  0.000000E+00
        29  14 -4.999521E+05 -2.572288E+05 -1.514362E+05  2.326892E+05 -5.293956E-12  3.970467E-12
        29  15 -5.092213E+05 -2.663181E+05 -1.551079E+05  2.426478E+05  3.308722E-13  6.617445E-13
        29  16 -4.700196E+05 -2.581973E+05 -1.456434E+05  2.117589E+05  0.000000E+00  1.323489E-12
        29  17 -4.799237E+05 -2.648324E+05 -1.489512E+05  2.201342E+05  4.632211E-12  2.646978E-12
        29  18 -4.892901E+05 -2.724669E+05 -1.523514E+05  2.286896E+05  1.985233E-12  2.150670E-12
        29  19 -5.119676E+05 -2.408054E+05 -1.505546E+05  2.345712E+05 -1.455838E-11  1.191140E-11
        29  20 -5.222328E+05 -2.505320E+05 -1.545530E+05  2.460199E+05 -2.646978E-12  1.522012E-11
        29  21 -5.314652E+05 -2.612027E+05 -1.585336E+05  2.574515E+05 -2.150670E-11  1.191140E-11
        29  22 -4.899185E+05 -2.491207E+05 -1.478078E+05  2.228200E+05 -1.058791E-11  2.117582E-11
        29  23 -4.999521E+05 -2.572288E+05 -1.514362E+05  2.326892E+05  7.940934E-12 -7.940934E-12
        29  24 -5.092213E+05 -2.663181E+05 -1.551079E+05  2.426478E+05  1.522012E-11  7.940934E-12
        29  25 -4.700196E+05 -2.581973E+05 -1.456434E+05  2.117589E+05 -5.293956E-12  2.117582E-11
        29  26 -4.799237E+05 -2.648324E+05 -1.489512E+05  2.201342E+05 -7.940934E-12  1.588187E-11
        29  27 -4.892901E+05 -2.724669E+05 -1.523514E+05  2.286896E+05  1.985233E-12  2.249931E-11
        30   1 -5.365403E+05 -2.675223E+05 -1.608125E+05  2.639438E+05  1.919059E-11  6.617445E-13
        30   2 -5.431413E+05 -2.771872E+05 -1.640657E+05  2.739323E+05  7.940934E-12 -1.588187E-11
        30   3 -5.487889E+05 -2.876469E+05 -1.672872E+05  2.837266E+05  1.091878E-11  7.775498E-12
        30   4 -5.140302E+05 -2.711860E+05 -1.570432E+05  2.480399E+05  0.000000E+00  0.000000E+00
        30   5 -5.213194E+05 -2.787372E+05 -1.600113E+05  2.565868E+05 -2.646978E-12  5.293956E-12
        30   6 -5.279654E+05 -2.871444E+05 -1.630220E+05  2.650726E+05 -2.977850E-12 -2.713152E-11
        30   7 -4.946296E+05 -2.764016E+05 -1.542062E+05  2.333511E+05  5.293956E-12 -2.117582E-11
        30   8 -5.026922E+05 -2.819851E+05 -1.569355E+05  2.405397E+05  3.176374E-11 -5.293956E-12
        30   9 -5.103652E+05 -2.884534E+05 -1.597637E+05  2.477761E+05  2.382280E-11  3.374897E-11
        30  10 -5.365403E+05 -2.675223E+05 -1.608125E+05  2.639438E+05  2.646978E-12 -1.323489E-12
        30  11 -5.431413E+05 -2.771872E+05 -1.640657E+05  2.739323E+05  1.323489E-12  2.646978E-12
        30  12 -5.487889E+05 -2.876469E+05 -1.672872E+05  2.837266E+05 -1.158053E-12 -4.963084E-13
        30  13 -5.140302E+05 -2.711860E+05 -1.570432E+05  2.480399E+05  0.000000E+00  2.646978E-12
        30  14 -5.213194E+05 -2.787372E+05 -1.600113E+05  2.565868E+05  1.323489E-12 -2.646978E-12
        30  15 -5.279654E+05 -2.871444E+05 -1.630220E+05  2.650726E+05  3.308722E-13 -2.316106E-12
        30  16 -4.946296E+05 -2.764016E+05 -1.542062E+05  2.333511E+05  1.323489E-12 -3.970467E-12
        30  17 -5.026922E+05 -2.819851E+05 -1.569355E+05  2.405397E+05 -1.323489E-12 -1.323489E-12
        30  18 -5.103652E+05 -2.884534E+05 -1.597637E+05  2.477761E+05 -1.654361E-13 -2.977850E-12
        30  19 -5.365403E+05 -2.675223E+05 -1.608125E+05  2.639438E+05 -1.919059E-11  2.051408E-11
        30  20 -5.431413E+05 -2.771872E+05 -1.640657E+05  2.739323E+05 -7.940934E-12  1.588187E-11
        30  21 -5.487889E+05 -2.876469E+05 -1.672872E+05  2.837266E+05 -3.308722E-13  2.812414E-12
        30  22 -5.140302E+05 -2.711860E+05 -1.570432E+05  2.480399E+05 -1.058791E-11 -2.117582E-11
        30  23 -5.213194E+05 -2.787372E+05 -1.600113E+05  2.565868E+05  2.646978E-12 -5.293956E-12
        30  24 -5.279654E+05 -2.871444E+05 -1.630220E+05  2.650726E+05 -7.610062E-12  1.654361E-11
        30  25 -4.946296E+05 -2.764016E+05 -1.542062E+05  2.333511E+05 -1.588187E-11  1.058791E-11
        30  26 -5.026922E+05 -2.819851E+05 -1.569355E+05  2.405397E+05 -1.058791E-11  5.293956E-12
        30  27 -5.103652E+05 -2.884534E+05 -1.597637E+05  2.477761E+05 -2.646978E-12  8.602678E-12
        31   1 -4.848165E+05 -2.773941E+05 -1.524421E+05  2.253556E+05  1.323489E-12  6.617445E-13
        31   2 -4.931213E+05 -2.821103E+05 -1.550463E+05  2.320717E+05  4.963084E-12  3.308722E-12
        31   3 -5.013740E+05 -2.874059E+05 -1.577560E+05  2.387484E+05 -1.083607E-11  3.391441E-12
        31   4 -4.692353E+05 -2.775416E+05 -1.493554E+05  2.124671E+05  1.588187E-11  5.293956E-12
        31   5 -4.781874E+05 -2.807259E+05 -1.517827E+05  2.185882E+05 -2.646978E-12 -5.293956E-12
        31   6 -4.871006E+05 -2.844692E+05 -1.543140E+05  2.246603E+05  6.948317E-12  6.617445E-12
        31   7 -4.556958E+05 -2.790748E+05 -1.469541E+05  2.005534E+05 -1.058791E-11  0.000000E+00
        31   8 -4.653363E+05 -2.807437E+05 -1.492160E+05  2.060934E+05  7.940934E-12 -5.293956E-12
        31   9 -4.749521E+05 -2.829510E+05 -1.515806E+05  2.115750E+05 -6.617445E-12  9.264423E-12
        31  10 -4.848165E+05 -2.773941E+05 -1.524421E+05  2.253556E+05 -6.617445E-13  0.000000E+00
        31  11 -4.931213E+05 -2.821103E+05 -1.550463E+05  2.320717E+05  1.323489E-12  1.323489E-12
        31  12 -5.013740E+05 -2.874059E+05 -1.577560E+05  2.387484E+05  1.158053E-12  8.271806E-13
        31  13 -4.692353E+05 -2.775416E+05 -1.493554E+05  2.124671E+05  0.000000E+00  0.000000E+00
        31  14 -4.781874E+05 -2.807259E+05 -1.517827E+05  2.185882E+05 -3.970467E-12 -6.617445E-12
        31  15 -4.871006E+05 -2.844692E+05 -1.543140E+05  2.246603E+05 -3.308722E-13 -3.308722E-12
        31  16 -4.556958E+05 -2.790748E+05 -1.469541E+05  2.005534E+05  2.646978E-12  0.000000E+00
        31  17 -4.653363E+05 -2.807437E+05 -1.492160E+05  2.060934E+05  6.617445E-13 -3.970467E-12
        31  18 -4.749521E+05 -2.829510E+05 -1.515806E+05  2.115750E+05  4.963084E-13  4.963084E-13
        31  19 -4.848165E+05 -2.773941E+05 -1.524421E+05  2.253556E+05 -1.323489E-12  9.926167E-12
        31  20 -4.931213E+05 -2.821103E+05 -1.550463E+05  2.320717E+05 -4.963084E-12  7.279189E-12
        31  21 -5.013740E+05 -2.874059E+05 -1.577560E+05  2.387484E+05  1.083607E-11 -3.391441E-12
        31  22 -4.692353E+05 -2.775416E+05 -1.493554E+05  2.124671E+05 -5.293956E-12  5.293956E-12
        31  23 -4.781874E+05 -2.807259E+05 -1.517827E+05  2.185882E+05  1.323489E-11  5.293956E-12
        31  24 -4.871006E+05 -2.844692E+05 -1.543140E+05  2.246603E+05 -6.948317E-12  1.455838E-11
        31  25 -4.556958E+05 -2.790748E+05 -1.469541E+05  2.005534E+05  0.000000E+00  1.058791E-11
        31  26 -4.653363E+05 -2.807437E+05 -1.492160E+05  2.060934E+05  2.646978E-12  1.588187E-11
        31  27 -4.749521E+05 -2.829510E+05 -1.515806E+05  2.115750E+05  6.617445E-12  1.323489E-12
        32   1 -4.599265E+05 -2.616199E+05 -1.443093E+05  2.051628E+05  1.389663E-11  1.852885E-11
        32   2 -4.697154E+05 -2.674852E+05 -1.474401E+05  2.130424E+05  0.000000E+00  1.257315E-11
        32   3 -4.793003E+05 -2.740232E+05 -1.506647E+05  2.209835E+05 -1.745351E-11 -8.106370E-12
        32   4 -4.438937E+05 -2.655914E+05 -1.418970E+05  1.939003E+05  5.293956E-12 -1.058791E-11
        32   5 -4.539141E+05 -2.701162E+05 -1.448061E+05  2.012269E+05  0.000000E+00 -5.293956E-12
        32   6 -4.637411E+05 -2.752700E+05 -1.478022E+05  2.085963E+05  1.323489E-12 -5.955700E-12
        32   7 -4.293073E+05 -2.704642E+05 -1.399543E+05  1.832920E+05  1.588187E-11  1.058791E-11
        32   8 -4.396189E+05 -2.736870E+05 -1.426612E+05  1.900928E+05  7.940934E-12  5.293956E-12
        32   9 -4.497497E+05 -2.774961E+05 -1.454492E+05  1.969183E+05 -1.323489E-12  0.000000E+00
        32  10 -4.599265E+05 -2.616199E+05 -1.443093E+05  2.051628E+05  1.323489E-12 -1.323489E-12
        32  11 -4.697154E+05 -2.674852E+05 -1.474401E+05  2.130424E+05 -1.985233E-12  2.646978E-12
        32  12 -4.793003E+05 -2.740232E+05 -1.506647E+05  2.209835E+05  2.067952E-12 -3.308722E-13
        32  13 -4.438937E+05 -2.655914E+05 -1.418970E+05  1.939003E+05 -2.646978E-12  2.646978E-12
        32  14 -4.539141E+05 -2.701162E+05 -1.448061E+05  2.012269E+05 -1.323489E-12  1.323489E-12
        32  15 -4.637411E+05 -2.752700E+05 -1.478022E+05  2.085963E+05 -3.308722E-13 -9.926167E-13
        32  16 -4.293073E+05 -2.704642E+05 -1.399543E+05  1.832920E+05 -1.323489E-12 -3.970467E-12
        32  17 -4.396189E+05 -2.736870E+05 -1.426612E+05  1.900928E+05  6.617445E-13  0.000000E+00
        32  18 -4.497497E+05 -2.774961E+05 -1.454492E+05  1.969183E+05 -9.926167E-13  2.316106E-12
        32  19 -4.599265E+05 -2.616199E+05 -1.443093E+05  2.051628E+05 -3.308722E-12 -1.852885E-11
        32  20 -4.697154E+05 -2.674852E+05 -1.474401E+05  2.130424E+05 -1.058791E-11  8.602678E-12
        32  21 -4.793003E+05 -2.740232E+05 -1.506647E+05  2.209835E+05 -3.722313E-12 -1.306945E-11
        32  22 -4.438937E+05 -2.655914E+05 -1.418970E+05  1.939003E+05 -5.293956E-12  2.117582E-11
        32  23 -4.539141E+05 -2.701162E+05 -1.448061E+05  2.012269E+05  0.000000E+00 -5.293956E-12
        32  24 -4.637411E+05 -2.752700E+05 -1.478022E+05  2.085963E+05 -1.323489E-12  5.955700E-12
        32  25 -4.293073E+05 -2.704642E+05 -1.399543E+05  1.832920E+05  5.293956E-12  0.000000E+00
        32  26 -4.396189E+05 -2.736870E+05 -1.426612E+05  1.900928E+05 -7.940934E-12 -5.293956E-12
        32  27 -4.497497E+05 -2.774961E+05 -1.454492E+05  1.969183E+05 -9.264423E-12  0.000000E+00
        33   1 -3.631494E+05 -1.534849E+05 -1.033269E+05  1.135954E+05  3.970467E-12 -1.323489E-12
        33   2 -3.794102E+05 -1.596099E+05 -1.078040E+05  1.240530E+05  3.308722E-12  3.441071E-11
        33   3 -3.948944E+05 -1.666574E+05 -1.123104E+05  1.349980E+05  1.174596E-11 -4.599124E-11
        33   4 -3.552716E+05 -1.658381E+05 -1.042219E+05  1.136649E+05  0.000000E+00 -3.176374E-11
        33   5 -3.698300E+05 -1.721780E+05 -1.084016E+05  1.233696E+05  0.000000E+00 -5.293956E-12
        33   6 -3.837170E+05 -1.793660E+05 -1.126166E+05  1.335627E+05 -9.926167E-12  2.646978E-12
        33   7 -3.467674E+05 -1.773838E+05 -1.048302E+05  1.131673E+05  1.058791E-11  1.058791E-11
        33   8 -3.597476E+05 -1.840296E+05 -1.087554E+05  1.221954E+05  2.646978E-11 -3.176374E-11
        33   9 -3.721670E+05 -1.914644E+05 -1.127263E+05  1.317208E+05  0.000000E+00 -1.985233E-11
        33  10 -3.631494E+05 -1.534849E+05 -1.033269E+05  1.135954E+05  0.000000E+00  2.646978E-12
        33  11 -3.794102E+05 -1.596099E+05 -1.078040E+05  1.240530E+05  0.000000E+00 -1.323489E-12
        33  12 -3.948944E+05 -1.666574E+05 -1.123104E+05  1.349980E+05 -1.985233E-12 -2.316106E-12
        33  13 -3.552716E+05 -1.658381E+05 -1.042219E+05  1.136649E+05  0.000000E+00  0.000000E+00
        33  14 -3.698300E+05 -1.721780E+05 -1.084016E+05  1.233696E+05  2.646978E-12  1.852885E-11
        33  15 -3.837170E+05 -1.793660E+05 -1.126166E+05  1.335627E+05 -1.323489E-12  6.617445E-12
        33  16 -3.467674E+05 -1.773838E+05 -1.048302E+05  1.131673E+05  0.000000E+00  5.293956E-12
        33  17 -3.597476E+05 -1.840296E+05 -1.087554E+05  1.221954E+05  1.985233E-12  2.646978E-12
        33  18 -3.721670E+05 -1.914644E+05 -1.127263E+05  1.317208E+05  9.926167E-13 -3.308722E-12
        33  19 -3.631494E+05 -1.534849E+05 -1.033269E+05  1.135954E+05 -3.970467E-12  2.249931E-11
        33  20 -3.794102E+05 -1.596099E+05 -1.078040E+05  1.240530E+05 -3.308722E-12  2.911676E-11
        33  21 -3.948944E+05 -1.666574E+05 -1.123104E+05  1.349980E+05 -2.233388E-11  2.481542E-11
        33  22 -3.552716E+05 -1.658381E+05 -1.042219E+05  1.136649E+05  1.058791E-11  3.176374E-11
        33  23 -3.698300E+05 -1.721780E+05 -1.084016E+05  1.233696E+05  0.000000E+00  2.646978E-11
        33  24 -3.837170E+05 -1.793660E+05 -1.126166E+05  1.335627E+05 -6.617445E-13 -2.382280E-11
        33  25 -3.467674E+05 -1.773838E+05 -1.048302E+05  1.131673E+05 -1.058791E-11 -1.058791E-11
        33  26 -3.597476E+05 -1.840296E+05 -1.087554E+05  1.221954E+05 -1.588187E-11  3.176374E-11
        33  27 -3.721670E+05 -1.914644E+05 -1.127263E+05  1.317208E+05 -1.058791E-11 -1.191140E-11
        34   1 -4.041592E+05 -1.708975E+05 -1.150113E+05  1.415463E+05  3.970467E-12 -5.293956E-12
        34   2 -4.199338E+05 -1.781892E+05 -1.196246E+05  1.529186E+05  5.293956E-12 -9.264423E-12
        34   3 -4.348097E+05 -1.865135E+05 -1.242646E+05  1.647005E+05  3.027481E-11 -5.293956E-12
        34   4 -3.919812E+05 -1.837445E+05 -1.151451E+05  1.396533E+05  2.117582E-11  1.588187E-11
        34   5 -4.061415E+05 -1.910587E+05 -1.194400E+05  1.500254E+05 -1.588187E-11  0.000000E+00
        34   6 -4.195590E+05 -1.993287E+05 -1.237775E+05  1.608317E+05  9.926167E-12 -3.308722E-12
        34   7 -3.796040E+05 -1.959025E+05 -1.151013E+05  1.373223E+05  1.588187E-11 -3.176374E-11
        34   8 -3.922954E+05 -2.033614E+05 -1.191314E+05  1.467928E+05 -1.058791E-11 -3.176374E-11
        34   9 -4.043966E+05 -2.117136E+05 -1.232220E+05  1.567271E+05  2.051408E-11  2.646978E-12
        34  10 -4.041592E+05 -1.708975E+05 -1.150113E+05  1.415463E+05  0.000000E+00  1.323489E-12
        34  11 -4.199338E+05 -1.781892E+05 -1.196246E+05  1.529186E+05 -3.308722E-12  1.323489E-12
        34  12 -4.348097E+05 -1.865135E+05 -1.242646E+05  1.647005E+05  1.654361E-13 -1.985233E-12
        34  13 -3.919812E+05 -1.837445E+05 -1.151451E+05  1.396533E+05  0.000000E+00  0.000000E+00
        34  14 -4.061415E+05 -1.910587E+05 -1.194400E+05  1.500254E+05 -1.323489E-12  7.940934E-12
        34  15 -4.195590E+05 -1.993287E+05 -1.237775E+05  1.608317E+05 -6.617445E-13  1.323489E-12
        34  16 -3.796040E+05 -1.959025E+05 -1.151013E+05  1.373223E+05 -1.323489E-12  1.323489E-12
        34  17 -3.922954E+05 -2.033614E+05 -1.191314E+05  1.467928E+05  6.617445E-13  2.646978E-12
        34  18 -4.043966E+05 -2.117136E+05 -1.232220E+05  1.567271E+05  1.985233E-12  1.654361E-13
        34  19 -4.041592E+05 -1.708975E+05 -1.150113E+05  1.415463E+05 -1.455838E-11  2.646978E-11
        34  20 -4.199338E+05 -1.781892E+05 -1.196246E+05  1.529186E+05 -1.588187E-11  3.044025E-11
        34  21 -4.348097E+05 -1.865135E+05 -1.242646E+05  1.647005E+05  1.488925E-12  2.646978E-11
        34  22 -3.919812E+05 -1.837445E+05 -1.151451E+05  1.396533E+05 -2.117582E-11  2.646978E-11
        34  23 -4.061415E+05 -1.910587E+05 -1.194400E+05  1.500254E+05 -5.293956E-12  0.000000E+00
        34  24 -4.195590E+05 -1.993287E+05 -1.237775E+05  1.608317E+05 -2.051408E-11  3.308722E-12
        34  25 -3.796040E+05 -1.959025E+05 -1.151013E+05  1.373223E+05 -5.293956E-12  3.176374E-11
        34  26 -3.922954E+05 -2.033614E+05 -1.191314E+05  1.467928E+05  1.058791E-11  0.000000E+00
        34  27 -4.043966E+05 -2.117136E+05 -1.232220E+05  1.567271E+05 -2.051408E-11  1.852885E-11
        35   1 -3.732566E+05 -2.021010E+05 -1.150715E+05  1.348795E+05  1.323489E-11 -1.985233E-11
        35   2 -3.851263E+05 -2.094982E+05 -1.189249E+05  1.439350E+05  1.257315E-11 -1.389663E-11
        35   3 -3.966141E+05 -2.178361E+05 -1.228900E+05  1.533374E+05 -6.203855E-12 -1.191140E-11
        35   4 -3.634044E+05 -2.112616E+05 -1.149332E+05  1.294311E+05 -1.323489E-11  1.588187E-11
        35   5 -3.740909E+05 -2.185240E+05 -1.185230E+05  1.377336E+05 -7.940934E-12  2.911676E-11
        35   6 -3.844166E+05 -2.266929E+05 -1.222219E+05  1.463841E+05  1.786710E-11 -6.617445E-12
        35   7 -3.535868E+05 -2.201438E+05 -1.147461E+05  1.238151E+05 -5.293956E-12  2.117582E-11
        35   8 -3.631283E+05 -2.272980E+05 -1.180853E+05  1.313908E+05  2.646978E-12  1.058791E-11
        35   9 -3.723287E+05 -2.353253E+05 -1.215308E+05  1.393147E+05  3.308722E-12  9.264423E-12
        35  10 -3.732566E+05 -2.021010E+05 -1.150715E+05  1.348795E+05 -1.323489E-12  0.000000E+00
        35  11 -3.851263E+05 -2.094982E+05 -1.189249E+05  1.439350E+05  1.985233E-12 -2.646978E-12
        35  12 -3.966141E+05 -2.178361E+05 -1.228900E+05  1.533374E+05  1.819797E-12 -1.654361E-12
        35  13 -3.634044E+05 -2.112616E+05 -1.149332E+05  1.294311E+05 -2.646978E-12  0.000000E+00
        35  14 -3.740909E+05 -2.185240E+05 -1.185230E+05  1.377336E+05 -1.323489E-12  2.646978E-12
        35  15 -3.844166E+05 -2.266929E+05 -1.222219E+05  1.463841E+05  3.308722E-13 -1.985233E-12
        35  16 -3.535868E+05 -2.201438E+05 -1.147461E+05  1.238151E+05  0.000000E+00  0.000000E+00
        35  17 -3.631283E+05 -2.272980E+05 -1.180853E+05  1.313908E+05  1.323489E-12 -6.617445E-13
        35  18 -3.723287E+05 -2.353253E+05 -1.215308E+05  1.393147E+05 -1.985233E-12 -1.158053E-12
        35  19 -3.732566E+05 -2.021010E+05 -1.150715E+05  1.348795E+05 -1.323489E-11 -1.191140E-11
        35  20 -3.851263E+05 -2.094982E+05 -1.189249E+05  1.439350E+05 -1.985233E-12 -1.786710E-11
        35  21 -3.966141E+05 -2.178361E+05 -1.228900E+05  1.533374E+05  6.203855E-12  1.191140E-11
        35  22 -3.634044E+05 -2.112616E+05 -1.149332E+05  1.294311E+05  1.323489E-11 -5.293956E-12
        35  23 -3.740909E+05 -2.185240E+05 -1.185230E+05  1.377336E+05 -1.323489E-11  2.646978E-12
        35  24 -3.844166E+05 -2.266929E+05 -1.222219E+05  1.463841E+05  3.308722E-12 -3.970467E-12
        35  25 -3.535868E+05 -2.201438E+05 -1.147461E+05  1.238151E+05  1.588187E-11  0.000000E+00
        35  26 -3.631283E+05 -2.272980E+05 -1.180853E+05  1.313908E+05 -2.382280E-11  2.117582E-11
        35  27 -3.723287E+05 -2.353253E+05 -1.215308E+05  1.393147E+05 -1.389663E-11 -9.264423E-12
        36   1 -3.425783E+05 -1.834460E+05 -1.052049E+05  1.117523E+05 -7.279189E-12  0.000000E+00
        36   2 -3.546480E+05 -1.901282E+05 -1.089552E+05  1.204711E+05  1.124966E-11 -1.323489E-12
        36   3 -3.663513E+05 -1.977066E+05 -1.128116E+05  1.295620E+05 -6.700163E-12  3.656138E-11
        36   4 -3.362623E+05 -1.926754E+05 -1.057875E+05  1.080408E+05  5.293956E-12 -1.588187E-11
        36   5 -3.469886E+05 -1.993716E+05 -1.092720E+05  1.161115E+05  0.000000E+00  2.117582E-11
        36   6 -3.573633E+05 -2.069469E+05 -1.128620E+05  1.245560E+05  2.613891E-11 -6.617445E-13
        36   7 -3.296047E+05 -2.014412E+05 -1.062092E+05  1.040138E+05  1.058791E-11 -2.117582E-11
        36   8 -3.390098E+05 -2.081659E+05 -1.094351E+05  1.114496E+05  1.058791E-11 -3.705769E-11
        36   9 -3.480776E+05 -2.157525E+05 -1.127660E+05  1.192608E+05  2.117582E-11 -9.264423E-12
        36  10 -3.425783E+05 -1.834460E+05 -1.052049E+05  1.117523E+05  1.323489E-12  1.323489E-12
        36  11 -3.546480E+05 -1.901282E+05 -1.089552E+05  1.204711E+05 -6.617445E-13 -1.323489E-12
        36  12 -3.663513E+05 -1.977066E+05 -1.128116E+05  1.295620E+05  1.488925E-12 -6.617445E-13
        36  13 -3.362623E+05 -1.926754E+05 -1.057875E+05  1.080408E+05  2.646978E-12  0.000000E+00
        36  14 -3.469886E+05 -1.993716E+05 -1.092720E+05  1.161115E+05 -1.323489E-12  2.646978E-12
        36  15 -3.573633E+05 -2.069469E+05 -1.128620E+05  1.245560E+05  2.977850E-12 -6.617445E-12
        36  16 -3.296047E+05 -2.014412E+05 -1.062092E+05  1.040138E+05  1.323489E-12  2.646978E-12
        36  17 -3.390098E+05 -2.081659E+05 -1.094351E+05  1.114496E+05 -6.617445E-13  2.646978E-12
        36  18 -3.480776E+05 -2.157525E+05 -1.127660E+05  1.192608E+05 -3.308722E-13  1.488925E-12
        36  19 -3.425783E+05 -1.834460E+05 -1.052049E+05  1.117523E+05 -3.308722E-12  0.000000E+00
        36  20 -3.546480E+05 -1.901282E+05 -1.089552E+05  1.204711E+05  9.926167E-12  4.367514E-11
        36  21 -3.663513E+05 -1.977066E+05 -1.128116E+05  1.295620E+05  6.700163E-12 -4.797648E-12
        36  22 -3.362623E+05 -1.926754E+05 -1.057875E+05  1.080408E+05 -5.293956E-12 -5.293956E-12
        36  23 -3.469886E+05 -1.993716E+05 -1.092720E+05  1.161115E+05  0.000000E+00  0.000000E+00
        36  24 -3.573633E+05 -2.069469E+05 -1.128620E+05  1.245560E+05 -4.963084E-12 -9.926167E-12
        36  25 -3.296047E+05 -2.014412E+05 -1.062092E+05  1.040138E+05 -2.117582E-11  0.000000E+00
        36  26 -3.390098E+05 -2.081659E+05 -1.094351E+05  1.114496E+05  0.000000E+00  1.588187E-11
        36  27 -3.480776E+05 -2.157525E+05 -1.127660E+05  1.192608E+05 -2.117582E-11 -1.323489E-12
        37   1 -5.434245E+05 -3.357640E+05 -1.758377E+05  3.169088E+05  1.985233E-12 -6.617445E-13
        37   2 -5.348649E+05 -3.409318E+05 -1.751593E+05  3.174663E+05 -2.646978E-12 -3.308722E-12
        37   3 -5.265533E+05 -3.457871E+05 -1.744681E+05  3.172782E+05  0.000000E+00  1.282130E-11
        37   4 -5.349790E+05 -3.216140E+05 -1.713186E+05  2.936070E+05  2.646978E-12 -2.646978E-12
        37   5 -5.294239E+05 -3.246591E+05 -1.708166E+05  2.941712E+05  3.970467E-12  1.455838E-11
        37   6 -5.243438E+05 -3.275810E+05 -1.703850E+05  2.942099E+05 -1.753623E-11 -6.617445E-12
        37   7 -5.303143E+05 -3.104872E+05 -1.681603E+05  2.723115E+05 -5.293956E-12  0.000000E+00
        37   8 -5.275882E+05 -3.114327E+05 -1.678042E+05  2.728519E+05 -2.646978E-12  7.940934E-12
        37   9 -5.254993E+05 -3.123862E+05 -1.675771E+05  2.730474E+05  5.293956E-12  5.293956E-12
        37  10 -5.434245E+05 -3.357640E+05 -1.758377E+05  3.169088E+05  0.000000E+00 -6.617445E-13
        37  11 -5.348649E+05 -3.409318E+05 -1.751593E+05  3.174663E+05 -3.970467E-12  0.000000E+00
        37  12 -5.265533E+05 -3.457871E+05 -1.744681E+05  3.172782E+05 -5.790264E-13  8.271806E-14
        37  13 -5.349790E+05 -3.216140E+05 -1.713186E+05  2.936070E+05  0.000000E+00  1.323489E-12
        37  14 -5.294239E+05 -3.246591E+05 -1.708166E+05  2.941712E+05  3.970467E-12  6.617445E-13
        37  15 -5.243438E+05 -3.275810E+05 -1.703850E+05  2.942099E+05  3.308722E-13  6.617445E-13
        37  16 -5.303143E+05 -3.104872E+05 -1.681603E+05  2.723115E+05  0.000000E+00 -1.985233E-12
        37  17 -5.275882E+05 -3.114327E+05 -1.678042E+05  2.728519E+05  1.654361E-12 -9.926167E-13
        37  18 -5.254993E+05 -3.123862E+05 -1.675771E+05  2.730474E+05  7.444626E-13 -8.271806E-13
        37  19 -5.434245E+05 -3.357640E+05 -1.758377E+05  3.169088E+05 -1.985233E-12  5.955700E-12
        37  20 -5.348649E+05 -3.409318E+05 -1.751593E+05  3.174663E+05  7.940934E-12  3.308722E-12
        37  21 -5.265533E+05 -3.457871E+05 -1.744681E+05  3.172782E+05  0.000000E+00 -1.282130E-11
        37  22 -5.349790E+05 -3.216140E+05 -1.713186E+05  2.936070E+05 -7.940934E-12  2.646978E-12
        37  23 -5.294239E+05 -3.246591E+05 -1.708166E+05  2.941712E+05  6.617445E-12  1.191140E-11
        37  24 -5.243438E+05 -3.275810E+05 -1.703850E+05  2.942099E+05  6.948317E-12  1.323489E-12
        37  25 -5.303143E+05 -3.104872E+05 -1.681603E+05  2.723115E+05  5.293956E-12  0.000000E+00
        37  26 -5.275882E+05 -3.114327E+05 -1.678042E+05  2.728519E+05  7.940934E-12 -2.646978E-12
        37  27 -5.254993E+05 -3.123862E+05 -1.675771E+05  2.730474E+05  5.293956E-12 -5.293956E-12
        38   1 -5.201614E+05 -3.479739E+05 -1.736271E+05  3.163263E+05  1.985233E-12  9.926167E-13
        38   2 -5.067035E+05 -3.501210E+05 -1.713649E+05  3.133037E+05 -6.948317E-12 -1.158053E-11
        38   3 -4.938325E+05 -3.512205E+05 -1.690106E+05  3.096187E+05 -7.610062E-12  7.444626E-13
        38   4 -5.196130E+05 -3.284986E+05 -1.696223E+05  2.932253E+05  0.000000E+00  0.000000E+00
        38   5 -5.099460E+05 -3.292920E+05 -1.678476E+05  2.905610E+05 -1.191140E-11  5.293956E-12
        38   6 -5.010271E+05 -3.292803E+05 -1.660615E+05  2.874432E+05 -3.639595E-12 -7.279189E-12
        38   7 -5.229162E+05 -3.121703E+05 -1.670173E+05  2.721966E+05 -5.293956E-12 -2.646978E-12
        38   8 -5.167781E+05 -3.115219E+05 -1.656600E+05  2.697955E+05 -2.646978E-12  0.000000E+00
        38   9 -5.114823E+05 -3.102506E+05 -1.643466E+05  2.671109E+05 -3.970467E-12  6.617445E-13
        38  10 -5.201614E+05 -3.479739E+05 -1.736271E+05  3.163263E+05  1.323489E-12 -6.617445E-13
        38  11 -5.067035E+05 -3.501210E+05 -1.713649E+05  3.133037E+05 -6.617445E-13  0.000000E+00
        38  12 -4.938325E+05 -3.512205E+05 -1.690106E+05  3.096187E+05  1.654361E-13  9.926167E-13
        38  13 -5.196130E+05 -3.284986E+05 -1.696223E+05  2.932253E+05 -1.323489E-12  1.323489E-12
        38  14 -5.099460E+05 -3.292920E+05 -1.678476E+05  2.905610E+05 -6.617445E-13  2.646978E-12
        38  15 -5.010271E+05 -3.292803E+05 -1.660615E+05  2.874432E+05 -2.481542E-12  1.323489E-12
        38  16 -5.229162E+05 -3.121703E+05 -1.670173E+05  2.721966E+05 -6.617445E-13  0.000000E+00
        38  17 -5.167781E+05 -3.115219E+05 -1.656600E+05  2.697955E+05  1.985233E-12 -9.926167E-13
        38  18 -5.114823E+05 -3.102506E+05 -1.643466E+05  2.671109E+05  0.000000E+00  4.135903E-13
        38  19 -5.201614E+05 -3.479739E+05 -1.736271E+05  3.163263E+05  8.602678E-12 -9.926167E-13
        38  20 -5.067035E+05 -3.501210E+05 -1.713649E+05  3.133037E+05  1.654361E-12  9.926167E-13
        38  21 -4.938325E+05 -3.512205E+05 -1.690106E+05  3.096187E+05  7.610062E-12 -7.444626E-13
        38  22 -5.196130E+05 -3.284986E+05 -1.696223E+05  2.932253E+05  0.000000E+00  0.000000E+00
        38  23 -5.099460E+05 -3.292920E+05 -1.678476E+05  2.905610E+05  1.323489E-12 -5.293956E-12
        38  24 -5.010271E+05 -3.292803E+05 -1.660615E+05  2.874432E+05  3.639595E-12  1.985233E-12
        38  25 -5.229162E+05 -3.121703E+05 -1.670173E+05  2.721966E+05  5.293956E-12  2.646978E-12
        38  26 -5.167781E+05 -3.115219E+05 -1.656600E+05  2.697955E+05 -2.646978E-12  5.293956E-12
        38  27 -5.114823E+05 -3.102506E+05 -1.643466E+05  2.671109E+05 -1.323489E-12 -6.617445E-13
        39   1 -5.241957E+05 -3.028558E+05 -1.654103E+05  2.619605E+05  6.617445E-12 -3.308722E-12
        39   2 -5.192674E+05 -3.014253E+05 -1.641385E+05  2.599530E+05  5.955700E-12 -6.617445E-13
        39   3 -5.150091E+05 -2.996685E+05 -1.629355E+05  2.577367E+05 -5.293956E-12  3.350081E-12
        39   4 -5.258168E+05 -2.874803E+05 -1.626594E+05  2.463815E+05  2.646978E-12  0.000000E+00
        39   5 -5.229735E+05 -2.853682E+05 -1.616684E+05  2.449288E+05 -3.970467E-12  2.646978E-12
        39   6 -5.208424E+05 -2.828878E+05 -1.607460E+05  2.432777E+05 -3.308722E-13  7.610062E-12
        39   7 -5.295230E+05 -2.740427E+05 -1.607131E+05  2.320071E+05 -5.293956E-12  5.293956E-12
        39   8 -5.288078E+05 -2.713145E+05 -1.600245E+05  2.311424E+05 -1.323489E-11  7.940934E-12
        39   9 -5.288481E+05 -2.681789E+05 -1.594054E+05  2.300909E+05  2.646978E-12  2.977850E-12
        39  10 -5.241957E+05 -3.028558E+05 -1.654103E+05  2.619605E+05  6.617445E-13 -1.323489E-12
        39  11 -5.192674E+05 -3.014253E+05 -1.641385E+05  2.599530E+05  1.323489E-12  0.000000E+00
        39  12 -5.150091E+05 -2.996685E+05 -1.629355E+05  2.577367E+05 -9.098987E-13 -4.135903E-13
        39  13 -5.258168E+05 -2.874803E+05 -1.626594E+05  2.463815E+05 -1.323489E-12  0.000000E+00
        39  14 -5.229735E+05 -2.853682E+05 -1.616684E+05  2.449288E+05 -2.646978E-12  1.985233E-12
        39  15 -5.208424E+05 -2.828878E+05 -1.607460E+05  2.432777E+05  3.308722E-13 -4.963084E-13
        39  16 -5.295230E+05 -2.740427E+05 -1.607131E+05  2.320071E+05 -1.323489E-12  0.000000E+00
        39  17 -5.288078E+05 -2.713145E+05 -1.600245E+05  2.311424E+05  9.926167E-13  0.000000E+00
        39  18 -5.288481E+05 -2.681789E+05 -1.594054E+05  2.300909E+05 -1.158053E-12  9.926167E-13
        39  19 -5.241957E+05 -3.028558E+05 -1.654103E+05  2.619605E+05 -6.617445E-12 -1.985233E-12
        39  20 -5.192674E+05 -3.014253E+05 -1.641385E+05  2.599530E+05  4.632211E-12  6.617445E-13
        39  21 -5.150091E+05 -2.996685E+05 -1.629355E+05  2.577367E+05  1.588187E-11 -3.350081E-12
        39  22 -5.258168E+05 -2.874803E+05 -1.626594E+05  2.463815E+05 -2.646978E-12  5.293956E-12
        39  23 -5.229735E+05 -2.853682E+05 -1.616684E+05  2.449288E+05 -1.323489E-12 -2.646978E-12
        39  24 -5.208424E+05 -2.828878E+05 -1.607460E+05  2.432777E+05  5.624828E-12 -2.316106E-12
        39  25 -5.295230E+05 -2.740427E+05 -1.607131E+05  2.320071E+05  5.293956E-12  0.000000E+00
        39  26 -5.288078E+05 -2.713145E+05 -1.600245E+05  2.311424E+05  1.323489E-11  2.646978E-12
        39  27 -5.288481E+05 -2.681789E+05 -1.594054E+05  2.300909E+05  7.940934E-12  2.316106E-12
        40   1 -5.275992E+05 -3.033514E+05 -1.661901E+05  2.617896E+05 -6.617445E-13  1.323489E-11
        40   2 -5.263593E+05 -3.033958E+05 -1.659510E+05  2.622822E+05 -6.286573E-12 -4.963084E-12
        40   3 -5.256667E+05 -3.034765E+05 -1.658286E+05  2.625312E+05 -6.617445E-12 -3.556877E-12
        40   4 -5.231221E+05 -2.909335E+05 -1.628111E+05  2.459003E+05 -7.940934E-12  2.646978E-12
        40   5 -5.241307E+05 -2.897263E+05 -1.627714E+05  2.463978E+05  1.455838E-11 -1.323489E-12
        40   6 -5.257017E+05 -2.885280E+05 -1.628459E+05  2.466553E+05  9.926167E-13 -1.654361E-12
        40   7 -5.212203E+05 -2.806027E+05 -1.603646E+05  2.313908E+05 -5.293956E-12  0.000000E+00
        40   8 -5.244875E+05 -2.781871E+05 -1.605349E+05  2.319131E+05 -1.058791E-11  0.000000E+00
        40   9 -5.283323E+05 -2.757543E+05 -1.608173E+05  2.321991E+05 -1.323489E-12 -1.323489E-12
        40  10 -5.275992E+05 -3.033514E+05 -1.661901E+05  2.617896E+05 -6.617445E-13  6.617445E-13
        40  11 -5.263593E+05 -3.033958E+05 -1.659510E+05  2.622822E+05  9.926167E-13 -9.926167E-13
        40  12 -5.256667E+05 -3.034765E+05 -1.658286E+05  2.625312E+05 -1.323489E-12 -4.135903E-13
        40  13 -5.231221E+05 -2.909335E+05 -1.628111E+05  2.459003E+05 -1.323489E-12  0.000000E+00
        40  14 -5.241307E+05 -2.897263E+05 -1.627714E+05  2.463978E+05 -1.323489E-12  6.617445E-13
        40  15 -5.257017E+05 -2.885280E+05 -1.628459E+05  2.466553E+05 -1.158053E-12 -6.617445E-13
        40  16 -5.212203E+05 -2.806027E+05 -1.603646E+05  2.313908E+05  0.000000E+00  1.323489E-12
        40  17 -5.244875E+05 -2.781871E+05 -1.605349E+05  2.319131E+05 -3.308722E-12  1.323489E-12
        40  18 -5.283323E+05 -2.757543E+05 -1.608173E+05  2.321991E+05  2.481542E-13  6.617445E-13
        40  19 -5.275992E+05 -3.033514E+05 -1.661901E+05  2.617896E+05 -4.632211E-12 -1.323489E-11
        40  20 -5.263593E+05 -3.033958E+05 -1.659510E+05  2.622822E+05  9.926167E-13  4.963084E-12
        40  21 -5.256667E+05 -3.034765E+05 -1.658286E+05  2.625312E+05  6.617445E-12 -1.737079E-12
        40  22 -5.231221E+05 -2.909335E+05 -1.628111E+05  2.459003E+05 -2.646978E-12  2.646978E-12
        40  23 -5.241307E+05 -2.897263E+05 -1.627714E+05  2.463978E+05  6.617445E-12 -3.970467E-12
        40  24 -5.257017E+05 -2.885280E+05 -1.628459E+05  2.466553E+05 -9.926167E-13  6.948317E-12
        40  25 -5.212203E+05 -2.806027E+05 -1.603646E+05  2.313908E+05  1.058791E-11  5.293956E-12
        40  26 -5.244875E+05 -2.781871E+05 -1.605349E+05  2.319131E+05  5.293956E-12 -5.293956E-12
        40  27 -5.283323E+05 -2.757543E+05 -1.608173E+05  2.321991E+05 -3.970467E-12 -9.264423E-12
        41   1 -3.742447E+05 -2.792569E+05 -1.307003E+05  1.361907E+05  5.955700E-12 -1.323489E-12
        41   2 -3.832194E+05 -2.778313E+05 -1.322101E+05  1.440525E+05  1.588187E-11 -1.124966E-11
        41   3 -3.926190E+05 -2.770755E+05 -1.339389E+05  1.522553E+05  1.431022E-11  1.885972E-11
        41   4 -3.880048E+05 -2.771397E+05 -1.330289E+05  1.453224E+05  7.940934E-12 -2.646978E-11
        41   5 -3.960554E+05 -2.765538E+05 -1.345218E+05  1.523829E+05  1.323489E-12  5.293956E-12
        41   6 -4.044944E+05 -2.767710E+05 -1.362531E+05  1.598116E+05  3.970467E-12  1.257315E-11
        41   7 -4.018387E+05 -2.751475E+05 -1.353972E+05  1.543896E+05  5.293956E-12  1.058791E-11
        41   8 -4.090738E+05 -2.755747E+05 -1.369297E+05  1.605676E+05  7.940934E-12 -1.323489E-11
        41   9 -4.166609E+05 -2.769658E+05 -1.387253E+05  1.671409E+05  9.926167E-12 -9.926167E-12
        41  10 -3.742447E+05 -2.792569E+05 -1.307003E+05  1.361907E+05  1.323489E-12 -1.985233E-12
        41  11 -3.832194E+05 -2.778313E+05 -1.322101E+05  1.440525E+05 -1.985233E-12  6.617445E-13
        41  12 -3.926190E+05 -2.770755E+05 -1.339389E+05  1.522553E+05  8.271806E-14  2.481542E-12
        41  13 -3.880048E+05 -2.771397E+05 -1.330289E+05  1.453224E+05 -1.323489E-12  2.646978E-12
        41  14 -3.960554E+05 -2.765538E+05 -1.345218E+05  1.523829E+05  0.000000E+00 -1.323489E-12
        41  15 -4.044944E+05 -2.767710E+05 -1.362531E+05  1.598116E+05 -1.654361E-13  2.316106E-12
        41  16 -4.018387E+05 -2.751475E+05 -1.353972E+05  1.543896E+05 -1.323489E-12 -1.323489E-12
        41  17 -4.090738E+05 -2.755747E+05 -1.369297E+05  1.605676E+05 -9.926167E-13  0.000000E+00
        41  18 -4.166609E+05 -2.769658E+05 -1.387253E+05  1.671409E+05 -7.444626E-13  5.790264E-13
        41  19 -3.742447E+05 -2.792569E+05 -1.307003E+05  1.361907E+05 -1.124966E-11  3.308722E-11
        41  20 -3.832194E+05 -2.778313E+05 -1.322101E+05  1.440525E+05 -5.293956E-12  6.617445E-13
        41  21 -3.926190E+05 -2.770755E+05 -1.339389E+05  1.522553E+05  1.571643E-12  1.290402E-11
        41  22 -3.880048E+05 -2.771397E+05 -1.330289E+05  1.453224E+05 -1.323489E-11  5.293956E-12
        41  23 -3.960554E+05 -2.765538E+05 -1.345218E+05  1.523829E+05 -1.323489E-12 -5.293956E-12
        41  24 -4.044944E+05 -2.767710E+05 -1.362531E+05  1.598116E+05  6.617445E-12  1.919059E-11
        41  25 -4.018387E+05 -2.751475E+05 -1.353972E+05  1.543896E+05  0.000000E+00  0.000000E+00
        41  26 -4.090738E+05 -2.755747E+05 -1.369297E+05  1.605676E+05 -2.646978E-12  2.646978E-12
        41  27 -4.166609E+05 -2.769658E+05 -1.387253E+05  1.671409E+05 -4.632211E-12  2.051408E-11
        42   1 -3.984191E+05 -2.765897E+05 -1.350018E+05  1.573709E+05  2.448455E-11 -1.455838E-11
        42   2 -4.097221E+05 -2.739562E+05 -1.367357E+05  1.670446E+05  9.926167E-12 -1.389663E-11
        42   3 -4.218341E+05 -2.721526E+05 -1.387973E+05  1.772174E+05 -8.850833E-12 -3.887749E-11
        42   4 -4.099862E+05 -2.768622E+05 -1.373697E+05  1.645701E+05  7.940934E-12 -2.646978E-12
        42   5 -4.206730E+05 -2.752950E+05 -1.391936E+05  1.740062E+05 -1.058791E-11  5.293956E-12
        42   6 -4.322350E+05 -2.746558E+05 -1.413782E+05  1.839934E+05  1.091878E-11 -2.084495E-11
        42   7 -4.215884E+05 -2.774316E+05 -1.398040E+05  1.716913E+05 -1.058791E-11 -1.058791E-11
        42   8 -4.316538E+05 -2.770351E+05 -1.417378E+05  1.808837E+05 -2.646978E-12  0.000000E+00
        42   9 -4.426664E+05 -2.776736E+05 -1.440680E+05  1.906836E+05  2.646978E-12  1.257315E-11
        42  10 -3.984191E+05 -2.765897E+05 -1.350018E+05  1.573709E+05 -6.617445E-13  1.323489E-12
        42  11 -4.097221E+05 -2.739562E+05 -1.367357E+05  1.670446E+05 -1.654361E-12 -1.985233E-12
        42  12 -4.218341E+05 -2.721526E+05 -1.387973E+05  1.772174E+05  2.481542E-13  6.617445E-13
        42  13 -4.099862E+05 -2.768622E+05 -1.373697E+05  1.645701E+05  0.000000E+00  0.000000E+00
        42  14 -4.206730E+05 -2.752950E+05 -1.391936E+05  1.740062E+05  0.000000E+00  1.323489E-12
        42  15 -4.322350E+05 -2.746558E+05 -1.413782E+05  1.839934E+05 -3.308722E-13  9.926167E-13
        42  16 -4.215884E+05 -2.774316E+05 -1.398040E+05  1.716913E+05 -6.617445E-13 -3.970467E-12
        42  17 -4.316538E+05 -2.770351E+05 -1.417378E+05  1.808837E+05 -9.926167E-13  6.617445E-13
        42  18 -4.426664E+05 -2.776736E+05 -1.440680E+05  1.906836E+05 -8.271806E-13  0.000000E+00
        42  19 -3.984191E+05 -2.765897E+05 -1.350018E+05  1.573709E+05 -3.308722E-12  3.970467E-12
        42  20 -4.097221E+05 -2.739562E+05 -1.367357E+05  1.670446E+05 -3.110199E-11  2.448455E-11
        42  21 -4.218341E+05 -2.721526E+05 -1.387973E+05  1.772174E+05 -1.232499E-11  1.770167E-11
        42  22 -4.099862E+05 -2.768622E+05 -1.373697E+05  1.645701E+05 -7.940934E-12  1.323489E-11
        42  23 -4.206730E+05 -2.752950E+05 -1.391936E+05  1.740062E+05  1.058791E-11 -5.293956E-12
        42  24 -4.322350E+05 -2.746558E+05 -1.413782E+05  1.839934E+05 -3.308722E-13 -3.308722E-13
        42  25 -4.215884E+05 -2.774316E+05 -1.398040E+05  1.716913E+05  5.293956E-12  1.058791E-11
        42  26 -4.316538E+05 -2.770351E+05 -1.417378E+05  1.808837E+05 -7.940934E-12  0.000000E+00
        42  27 -4.426664E+05 -2.776736E+05 -1.440680E+05  1.906836E+05 -7.940934E-12 -1.257315E-11
        43   1 -4.284777E+05 -2.772021E+05 -1.411360E+05  1.754207E+05  7.279189E-12  9.264423E-12
        43   2 -4.380701E+05 -2.775157E+05 -1.431172E+05  1.845276E+05 -2.646978E-12 -4.301339E-12
        43   3 -4.488349E+05 -2.789103E+05 -1.455490E+05  1.943110E+05  3.556877E-12  8.271806E-13
        43   4 -4.399430E+05 -2.758437E+05 -1.431573E+05  1.809117E+05 -2.646978E-12 -1.323489E-11
        43   5 -4.487373E+05 -2.772598E+05 -1.451994E+05  1.899753E+05  0.000000E+00 -7.940934E-12
        43   6 -4.587535E+05 -2.798152E+05 -1.477137E+05  1.997484E+05  1.257315E-11 -1.588187E-11
        43   7 -4.516019E+05 -2.748511E+05 -1.452906E+05  1.862515E+05  5.293956E-12  1.058791E-11
        43   8 -4.595796E+05 -2.774264E+05 -1.474012E+05  1.952734E+05  0.000000E+00 -2.646978E-12
        43   9 -4.688309E+05 -2.812024E+05 -1.500067E+05  2.050393E+05 -3.970467E-12  6.617445E-12
        43  10 -4.284777E+05 -2.772021E+05 -1.411360E+05  1.754207E+05  0.000000E+00 -6.617445E-13
        43  11 -4.380701E+05 -2.775157E+05 -1.431172E+05  1.845276E+05  9.926167E-13  1.323489E-12
        43  12 -4.488349E+05 -2.789103E+05 -1.455490E+05  1.943110E+05  3.308722E-13  6.617445E-13
        43  13 -4.399430E+05 -2.758437E+05 -1.431573E+05  1.809117E+05  0.000000E+00  0.000000E+00
        43  14 -4.487373E+05 -2.772598E+05 -1.451994E+05  1.899753E+05 -1.323489E-12  1.323489E-12
        43  15 -4.587535E+05 -2.798152E+05 -1.477137E+05  1.997484E+05  4.963084E-13 -1.654361E-12
        43  16 -4.516019E+05 -2.748511E+05 -1.452906E+05  1.862515E+05 -6.617445E-13  6.617445E-13
        43  17 -4.595796E+05 -2.774264E+05 -1.474012E+05  1.952734E+05 -3.308722E-13  2.646978E-12
        43  18 -4.688309E+05 -2.812024E+05 -1.500067E+05  2.050393E+05  3.308722E-13  2.729696E-12
        43  19 -4.284777E+05 -2.772021E+05 -1.411360E+05  1.754207E+05  3.308722E-12 -9.264423E-12
        43  20 -4.380701E+05 -2.775157E+05 -1.431172E+05  1.845276E+05 -7.940934E-12  4.301339E-12
        43  21 -4.488349E+05 -2.789103E+05 -1.455490E+05  1.943110E+05  1.737079E-12 -1.141509E-11
        43  22 -4.399430E+05 -2.758437E+05 -1.431573E+05  1.809117E+05  7.940934E-12  2.646978E-12
        43  23 -4.487373E+05 -2.772598E+05 -1.451994E+05  1.899753E+05  5.293956E-12 -2.646978E-12
        43  24 -4.587535E+05 -2.798152E+05 -1.477137E+05  1.997484E+05 -1.257315E-11  5.293956E-12
        43  25 -4.516019E+05 -2.748511E+05 -1.452906E+05  1.862515E+05  5.293956E-12  0.000000E+00
        43  26 -4.595796E+05 -2.774264E+05 -1.474012E+05  1.952734E+05  0.000000E+00 -2.646978E-12
        43  27 -4.688309E+05 -2.812024E+05 -1.500067E+05  2.050393E+05 -6.617445E-12 -1.323489E-12
        44   1 -4.100448E+05 -2.729728E+05 -1.366035E+05  1.586691E+05  6.617445E-13  2.117582E-11
        44   2 -4.165464E+05 -2.742729E+05 -1.381639E+05  1.645516E+05  1.389663E-11  4.632211E-12
        44   3 -4.237846E+05 -2.764551E+05 -1.400479E+05  1.709199E+05 -4.301339E-12  2.977850E-12
        44   4 -4.221284E+05 -2.692768E+05 -1.382810E+05  1.639687E+05  0.000000E+00  0.000000E+00
        44   5 -4.284355E+05 -2.714340E+05 -1.399739E+05  1.699698E+05  2.646978E-12  2.646978E-12
        44   6 -4.354713E+05 -2.744494E+05 -1.419841E+05  1.764509E+05  3.308722E-12 -1.919059E-11
        44   7 -4.345208E+05 -2.659265E+05 -1.400894E+05  1.690705E+05  5.293956E-12  1.588187E-11
        44   8 -4.406459E+05 -2.689406E+05 -1.419173E+05  1.751849E+05  7.940934E-12  0.000000E+00
        44   9 -4.474913E+05 -2.727893E+05 -1.440561E+05  1.817739E+05 -7.940934E-12  9.926167E-12
        44  10 -4.100448E+05 -2.729728E+05 -1.366035E+05  1.586691E+05 -6.617445E-13  0.000000E+00
        44  11 -4.165464E+05 -2.742729E+05 -1.381639E+05  1.645516E+05 -3.308722E-13  3.308722E-13
        44  12 -4.237846E+05 -2.764551E+05 -1.400479E+05  1.709199E+05 -3.308722E-13  1.737079E-12
        44  13 -4.221284E+05 -2.692768E+05 -1.382810E+05  1.639687E+05 -1.323489E-12  0.000000E+00
        44  14 -4.284355E+05 -2.714340E+05 -1.399739E+05  1.699698E+05  1.985233E-12 -1.323489E-12
        44  15 -4.354713E+05 -2.744494E+05 -1.419841E+05  1.764509E+05  3.970467E-12 -1.323489E-12
        44  16 -4.345208E+05 -2.659265E+05 -1.400894E+05  1.690705E+05 -6.617445E-13 -6.617445E-13
        44  17 -4.406459E+05 -2.689406E+05 -1.419173E+05  1.751849E+05  0.000000E+00 -1.323489E-12
        44  18 -4.474913E+05 -2.727893E+05 -1.440561E+05  1.817739E+05 -1.158053E-12  9.098987E-13
        44  19 -4.100448E+05 -2.729728E+05 -1.366035E+05  1.586691E+05 -5.955700E-12 -5.293956E-12
        44  20 -4.165464E+05 -2.742729E+05 -1.381639E+05  1.645516E+05 -8.602678E-12  6.617445E-13
        44  21 -4.237846E+05 -2.764551E+05 -1.400479E+05  1.709199E+05 -6.286573E-12 -1.356576E-11
        44  22 -4.221284E+05 -2.692768E+05 -1.382810E+05  1.639687E+05  0.000000E+00  5.293956E-12
        44  23 -4.284355E+05 -2.714340E+05 -1.399739E+05  1.699698E+05  2.646978E-12 -2.646978E-12
        44  24 -4.354713E+05 -2.744494E+05 -1.419841E+05  1.764509E+05 -3.308722E-12  8.602678E-12
        44  25 -4.345208E+05 -2.659265E+05 -1.400894E+05  1.690705E+05 -1.058791E-11 -5.293956E-12
        44  26 -4.406459E+05 -2.689406E+05 -1.419173E+05  1.751849E+05  2.646978E-12  1.058791E-11
        44  27 -4.474913E+05 -2.727893E+05 -1.440561E+05  1.817739E+05 -2.646978E-12  1.124966E-11
        45   1 -2.471260E+05 -1.499998E+05 -7.942516E+04  3.224805E+04  7.940934E-12  1.058791E-11
        45   2 -2.496126E+05 -1.541658E+05 -8.075568E+04  2.617760E+04  1.389663E-11  5.293956E-12
        45   3 -2.533622E+05 -1.586379E+05 -8.240004E+04  2.006280E+04  1.257315E-11  3.308722E-12
        45   4 -2.396976E+05 -1.451627E+05 -7.697206E+04  2.741187E+04 -1.588187E-11 -2.117582E-11
        45   5 -2.419551E+05 -1.487180E+05 -7.813461E+04  2.194133E+04 -1.852885E-11 -1.588187E-11
        45   6 -2.456463E+05 -1.526330E+05 -7.965586E+04  1.639267E+04  0.000000E+00 -1.985233E-11
        45   7 -2.322618E+05 -1.406035E+05 -7.457306E+04  2.275281E+04  5.293956E-12  2.117582E-11
        45   8 -2.342971E+05 -1.435388E+05 -7.556719E+04  1.795333E+04  1.058791E-11 -4.235165E-11
        45   9 -2.379519E+05 -1.468939E+05 -7.696916E+04  1.302937E+04  1.257315E-11  1.323489E-11
        45  10 -2.471260E+05 -1.499998E+05 -7.942516E+04  3.224805E+04 -1.323489E-12  2.646978E-12
        45  11 -2.496126E+05 -1.541658E+05 -8.075568E+04  2.617760E+04  6.617445E-13 -1.323489E-12
        45  12 -2.533622E+05 -1.586379E+05 -8.240004E+04  2.006280E+04  1.819797E-12  3.639595E-12
        45  13 -2.396976E+05 -1.451627E+05 -7.697206E+04  2.741187E+04  2.646978E-12  1.058791E-11
        45  14 -2.419551E+05 -1.487180E+05 -7.813461E+04  2.194133E+04 -1.323489E-12 -7.940934E-12
        45  15 -2.456463E+05 -1.526330E+05 -7.965586E+04  1.639267E+04 -2.646978E-12 -2.646978E-12
        45  16 -2.322618E+05 -1.406035E+05 -7.457306E+04  2.275281E+04  1.323489E-12  2.646978E-12
        45  17 -2.342971E+05 -1.435388E+05 -7.556719E+04  1.795333E+04  3.308722E-12 -1.323489E-12
        45  18 -2.379519E+05 -1.468939E+05 -7.696916E+04  1.302937E+04  1.488925E-12  1.654361E-12
        45  19 -2.471260E+05 -1.499998E+05 -7.942516E+04  3.224805E+04 -7.940934E-12  1.058791E-11
        45  20 -2.496126E+05 -1.541658E+05 -8.075568E+04  2.617760E+04 -3.308722E-12 -5.293956E-12
        45  21 -2.533622E+05 -1.586379E+05 -8.240004E+04  2.006280E+04 -1.257315E-11 -3.308722E-12
        45  22 -2.396976E+05 -1.451627E+05 -7.697206E+04  2.741187E+04  5.293956E-12  2.117582E-11
        45  23 -2.419551E+05 -1.487180E+05 -7.813461E+04  2.194133E+04  7.940934E-12 -5.293956E-12
        45  24 -2.456463E+05 -1.526330E+05 -7.965586E+04  1.639267E+04 -5.293956E-12  1.985233E-11
        45  25 -2.322618E+05 -1.406035E+05 -7.457306E+04  2.275281E+04 -5.293956E-12  0.000000E+00
        45  26 -2.342971E+05 -1.435388E+05 -7.556719E+04  1.795333E+04  0.000000E+00  2.117582E-11
        45  27 -2.379519E+05 -1.468939E+05 -7.696916E+04  1.302937E+04 -2.316106E-11 -1.323489E-11
        46   1 -2.560504E+05 -1.607928E+05 -8.336864E+04  1.613942E+04  6.617445E-13  1.323489E-11
        46   2 -2.620482E+05 -1.624757E+05 -8.490478E+04  8.484272E+03  1.058791E-11 -2.514629E-11
        46   3 -2.704056E+05 -1.647455E+05 -8.703022E+04  8.525549E+02  3.970467E-12 -1.124966E-11
        46   4 -2.483319E+05 -1.545080E+05 -8.056799E+04  1.301156E+04  7.940934E-12  1.058791E-11
        46   5 -2.544830E+05 -1.561541E+05 -8.212743E+04  6.587173E+03 -2.646978E-12  0.000000E+00
        46   6 -2.631334E+05 -1.584219E+05 -8.431106E+04  1.815373E+02 -5.624828E-12  5.293956E-12
        46   7 -2.406763E+05 -1.485282E+05 -7.784091E+04  1.002066E+04  1.058791E-11  0.000000E+00
        46   8 -2.469859E+05 -1.501312E+05 -7.942343E+04  4.886860E+03  2.646978E-11 -1.058791E-11
        46   9 -2.559415E+05 -1.523927E+05 -8.166683E+04 -2.336858E+02 -1.455838E-11  1.588187E-11
        46  10 -2.560504E+05 -1.607928E+05 -8.336864E+04  1.613942E+04 -6.617445E-13 -5.293956E-12
        46  11 -2.620482E+05 -1.624757E+05 -8.490478E+04  8.484272E+03 -6.617445E-13  3.970467E-12
        46  12 -2.704056E+05 -1.647455E+05 -8.703022E+04  8.525549E+02  3.308722E-13 -2.977850E-12
        46  13 -2.483319E+05 -1.545080E+05 -8.056799E+04  1.301156E+04  0.000000E+00  0.000000E+00
        46  14 -2.544830E+05 -1.561541E+05 -8.212743E+04  6.587173E+03  2.646978E-12  0.000000E+00
        46  15 -2.631334E+05 -1.584219E+05 -8.431106E+04  1.815373E+02  9.926167E-13  0.000000E+00
        46  16 -2.406763E+05 -1.485282E+05 -7.784091E+04  1.002066E+04 -6.617445E-13  0.000000E+00
        46  17 -2.469859E+05 -1.501312E+05 -7.942343E+04  4.886860E+03 -3.639595E-12  1.323489E-12
        46  18 -2.559415E+05 -1.523927E+05 -8.166683E+04 -2.336858E+02  9.926167E-13 -4.632211E-12
        46  19 -2.560504E+05 -1.607928E+05 -8.336864E+04  1.613942E+04 -6.617445E-13  7.940934E-12
        46  20 -2.620482E+05 -1.624757E+05 -8.490478E+04  8.484272E+03 -1.588187E-11  3.970467E-12
        46  21 -2.704056E+05 -1.647455E+05 -8.703022E+04  8.525549E+02 -9.264423E-12  1.124966E-11
        46  22 -2.483319E+05 -1.545080E+05 -8.056799E+04  1.301156E+04 -2.646978E-12 -1.058791E-11
        46  23 -2.544830E+05 -1.561541E+05 -8.212743E+04  6.587173E+03 -2.646978E-12 -2.117582E-11
        46  24 -2.631334E+05 -1.584219E+05 -8.431106E+04  1.815373E+02  3.308722E-13 -5.293956E-12
        46  25 -2.406763E+05 -1.485282E+05 -7.784091E+04  1.002066E+04 -5.293956E-12  0.000000E+00
        46  26 -2.469859E+05 -1.501312E+05 -7.942343E+04  4.886860E+03 -1.588187E-11  3.176374E-11
        46  27 -2.559415E+05 -1.523927E+05 -8.166683E+04 -2.336858E+02 -1.323489E-12 -3.705769E-11
        47   1 -2.344794E+05 -1.446596E+05 -7.582780E+04  8.047137E+03  1.852885E-11 -5.293956E-11
        47   2 -2.413894E+05 -1.463684E+05 -7.755155E+04  3.832275E+03  1.058791E-11 -4.499863E-11
        47   3 -2.505112E+05 -1.485999E+05 -7.982223E+04 -4.792327E+02  2.225116E-11  3.308722E-12
        47   4 -2.213408E+05 -1.372592E+05 -7.172001E+04  4.994792E+03 -1.323489E-11  4.235165E-11
        47   5 -2.289379E+05 -1.392020E+05 -7.362799E+04  2.040309E+03  5.293956E-12 -3.705769E-11
        47   6 -2.389553E+05 -1.417224E+05 -7.613554E+04 -7.911166E+02  1.290402E-11 -1.720536E-11
        47   7 -2.081631E+05 -1.296738E+05 -6.756738E+04  1.773784E+03 -5.293956E-12  0.000000E+00
        47   8 -2.165217E+05 -1.321738E+05 -6.973910E+04  1.676796E+02 -7.940934E-12 -4.235165E-11
        47   9 -2.275338E+05 -1.353788E+05 -7.258251E+04 -1.067479E+03  3.970467E-12 -5.293956E-12
        47  10 -2.344794E+05 -1.446596E+05 -7.582780E+04  8.047137E+03  1.323489E-12 -2.646978E-12
        47  11 -2.413894E+05 -1.463684E+05 -7.755155E+04  3.832275E+03 -1.323489E-12  7.940934E-12
        47  12 -2.505112E+05 -1.485999E+05 -7.982223E+04 -4.792327E+02  1.240771E-12 -1.323489E-12
        47  13 -2.213408E+05 -1.372592E+05 -7.172001E+04  4.994792E+03 -5.293956E-12 -5.293956E-12
        47  14 -2.289379E+05 -1.392020E+05 -7.362799E+04  2.040309E+03  1.323489E-12  2.646978E-12
        47  15 -2.389553E+05 -1.417224E+05 -7.613554E+04 -7.911166E+02 -9.926167E-13  5.293956E-12
        47  16 -2.081631E+05 -1.296738E+05 -6.756738E+04  1.773784E+03 -1.323489E-12  0.000000E+00
        47  17 -2.165217E+05 -1.321738E+05 -6.973910E+04  1.676796E+02 -6.617445E-13  1.323489E-12
        47  18 -2.275338E+05 -1.353788E+05 -7.258251E+04 -1.067479E+03 -8.271806E-14  6.617445E-13
        47  19 -2.344794E+05 -1.446596E+05 -7.582780E+04  8.047137E+03 -7.940934E-12  3.176374E-11
        47  20 -2.413894E+05 -1.463684E+05 -7.755155E+04  3.832275E+03 -1.058791E-11  2.646978E-12
        47  21 -2.505112E+05 -1.485999E+05 -7.982223E+04 -4.792327E+02 -6.369291E-12 -3.308722E-12
        47  22 -2.213408E+05 -1.372592E+05 -7.172001E+04  4.994792E+03 -7.940934E-12  2.117582E-11
        47  23 -2.289379E+05 -1.392020E+05 -7.362799E+04  2.040309E+03  0.000000E+00 -2.646978E-11
        47  24 -2.389553E+05 -1.417224E+05 -7.613554E+04 -7.911166E+02 -7.610062E-12  1.720536E-11
        47  25 -2.081631E+05 -1.296738E+05 -6.756738E+04  1.773784E+03  5.293956E-12  0.000000E+00
        47  26 -2.165217E+05 -1.321738E+05 -6.973910E+04  1.676796E+02  2.646978E-12  0.000000E+00
        47  27 -2.275338E+05 -1.353788E+05 -7.258251E+04 -1.067479E+03  1.323489E-12  5.293956E-12
        48   1 -2.272305E+05 -1.377071E+05 -7.298753E+04  1.965795E+04  5.955700E-12 -3.441071E-11
        48   2 -2.293143E+05 -1.403184E+05 -7.392653E+04  1.512819E+04  2.646978E-12 -7.146840E-11
        48   3 -2.318892E+05 -1.430611E+05 -7.499006E+04  1.054753E+04  2.481542E-12 -1.422751E-11
        48   4 -2.162559E+05 -1.319916E+05 -6.964950E+04  1.455691E+04  5.293956E-12  5.293956E-11
        48   5 -2.170715E+05 -1.336127E+05 -7.013684E+04  1.061122E+04 -2.646978E-12 -1.588187E-11
        48   6 -2.187268E+05 -1.354712E+05 -7.083960E+04  6.545539E+03 -3.970467E-12 -2.779327E-11
        48   7 -2.055395E+05 -1.271473E+05 -6.653736E+04  9.305627E+03  0.000000E+00  0.000000E+00
        48   8 -2.049819E+05 -1.276475E+05 -6.652589E+04  6.196578E+03 -1.058791E-11 -1.058791E-11
        48   9 -2.056998E+05 -1.285345E+05 -6.684686E+04  2.841695E+03  9.926167E-12 -1.852885E-11
        48  10 -2.272305E+05 -1.377071E+05 -7.298753E+04  1.965795E+04  0.000000E+00  0.000000E+00
        48  11 -2.293143E+05 -1.403184E+05 -7.392653E+04  1.512819E+04  0.000000E+00  7.940934E-12
        48  12 -2.318892E+05 -1.430611E+05 -7.499006E+04  1.054753E+04  1.654361E-13 -2.316106E-12
        48  13 -2.162559E+05 -1.319916E+05 -6.964950E+04  1.455691E+04  0.000000E+00  0.000000E+00
        48  14 -2.170715E+05 -1.336127E+05 -7.013684E+04  1.061122E+04 -1.323489E-12  7.940934E-12
        48  15 -2.187268E+05 -1.354712E+05 -7.083960E+04  6.545539E+03  3.308722E-12  7.279189E-12
        48  16 -2.055395E+05 -1.271473E+05 -6.653736E+04  9.305627E+03  1.323489E-12 -2.646978E-12
        48  17 -2.049819E+05 -1.276475E+05 -6.652589E+04  6.196578E+03 -1.323489E-12 -3.970467E-12
        48  18 -2.056998E+05 -1.285345E+05 -6.684686E+04  2.841695E+03  4.963084E-13  2.316106E-12
        48  19 -2.272305E+05 -1.377071E+05 -7.298753E+04  1.965795E+04 -1.654361E-11  3.441071E-11
        48  20 -2.293143E+05 -1.403184E+05 -7.392653E+04  1.512819E+04 -2.646978E-12  2.911676E-11
        48  21 -2.318892E+05 -1.430611E+05 -7.499006E+04  1.054753E+04 -2.481542E-12  1.422751E-11
        48  22 -2.162559E+05 -1.319916E+05 -6.964950E+04  1.455691E+04 -5.293956E-12  3.176374E-11
        48  23 -2.170715E+05 -1.336127E+05 -7.013684E+04  1.061122E+04  2.646978E-12 -2.646978E-11
        48  24 -2.187268E+05 -1.354712E+05 -7.083960E+04  6.545539E+03 -6.617445E-12 -1.455838E-11
        48  25 -2.055395E+05 -1.271473E+05 -6.653736E+04  9.305627E+03  1.058791E-11  0.000000E+00
        48  26 -2.049819E+05 -1.276475E+05 -6.652589E+04  6.196578E+03  1.058791E-11  1.058791E-11
        48  27 -2.056998E+05 -1.285345E+05 -6.684686E+04  2.841695E+03 -9.926167E-12  1.852885E-11
        49   1 -3.241106E+05 -2.672904E+05 -1.182802E+05  8.903412E+04 -2.646978E-12 -3.970467E-12
        49   2 -3.341264E+05 -2.627905E+05 -1.193834E+05  1.012185E+05  8.933551E-12 -1.985233E-11
        49   3 -3.441428E+05 -2.583472E+05 -1.204980E+05  1.134350E+05 -4.714929E-12 -8.768114E-12
        49   4 -3.337155E+05 -2.715802E+05 -1.210591E+05  9.925089E+04  1.058791E-11 -1.588187E-11
        49   5 -3.434310E+05 -2.674617E+05 -1.221785E+05  1.102367E+05 -1.720536E-11 -1.058791E-11
        49   6 -3.528912E+05 -2.634047E+05 -1.232592E+05  1.212235E+05  3.639595E-12 -2.117582E-11
        49   7 -3.425781E+05 -2.753806E+05 -1.235917E+05  1.098764E+05  0.000000E+00 -3.176374E-11
        49   8 -3.522923E+05 -2.718113E+05 -1.248207E+05  1.195262E+05  1.323489E-11  2.117582E-11
        49   9 -3.614666E+05 -2.683199E+05 -1.259573E+05  1.291315E+05  2.646978E-12  3.044025E-11
        49  10 -3.241106E+05 -2.672904E+05 -1.182802E+05  8.903412E+04  1.323489E-12  1.323489E-12
        49  11 -3.341264E+05 -2.627905E+05 -1.193834E+05  1.012185E+05  0.000000E+00  4.632211E-12
        49  12 -3.441428E+05 -2.583472E+05 -1.204980E+05  1.134350E+05  1.158053E-12 -3.308722E-13
        49  13 -3.337155E+05 -2.715802E+05 -1.210591E+05  9.925089E+04 -2.646978E-12 -2.646978E-12
        49  14 -3.434310E+05 -2.674617E+05 -1.221785E+05  1.102367E+05 -1.323489E-12  5.293956E-12
        49  15 -3.528912E+05 -2.634047E+05 -1.232592E+05  1.212235E+05  8.271806E-13 -4.963084E-12
        49  16 -3.425781E+05 -2.753806E+05 -1.235917E+05  1.098764E+05 -6.617445E-13  1.323489E-12
        49  17 -3.522923E+05 -2.718113E+05 -1.248207E+05  1.195262E+05 -6.617445E-13 -2.646978E-12
        49  18 -3.614666E+05 -2.683199E+05 -1.259573E+05  1.291315E+05  1.075335E-12  1.819797E-12
        49  19 -3.241106E+05 -2.672904E+05 -1.182802E+05  8.903412E+04 -2.646978E-12  3.970467E-12
        49  20 -3.341264E+05 -2.627905E+05 -1.193834E+05  1.012185E+05 -8.933551E-12 -1.323489E-12
        49  21 -3.441428E+05 -2.583472E+05 -1.204980E+05  1.134350E+05 -5.790264E-13  8.768114E-12
        49  22 -3.337155E+05 -2.715802E+05 -1.210591E+05  9.925089E+04 -1.058791E-11  5.293956E-12
        49  23 -3.434310E+05 -2.674617E+05 -1.221785E+05  1.102367E+05 -3.970467E-12 -2.117582E-11
        49  24 -3.528912E+05 -2.634047E+05 -1.232592E+05  1.212235E+05 -1.422751E-11  1.058791E-11
        49  25 -3.425781E+05 -2.753806E+05 -1.235917E+05  1.098764E+05  0.000000E+00  3.176374E-11
        49  26 -3.522923E+05 -2.718113E+05 -1.248207E+05  1.195262E+05 -7.940934E-12  1.058791E-11
        49  27 -3.614666E+05 -2.683199E+05 -1.259573E+05  1.291315E+05 -7.940934E-12  1.323489E-12
        50   1 -3.500968E+05 -2.554147E+05 -1.211023E+05  1.197336E+05 -3.970467E-12  1.323489E-12
        50   2 -3.605892E+05 -2.494576E+05 -1.220094E+05  1.292531E+05 -1.985233E-12 -7.279189E-12
        50   3 -3.712635E+05 -2.436403E+05 -1.229807E+05  1.388686E+05 -7.940934E-12 -1.373120E-11
        50   4 -3.588774E+05 -2.607687E+05 -1.239292E+05  1.270740E+05  5.293956E-12  5.293956E-12
        50   5 -3.697322E+05 -2.552887E+05 -1.250042E+05  1.366500E+05 -5.293956E-12 -1.323489E-11
        50   6 -3.807735E+05 -2.499658E+05 -1.261479E+05  1.463308E+05 -6.948317E-12 -1.058791E-11
        50   7 -3.673545E+05 -2.663847E+05 -1.267478E+05  1.346203E+05  0.000000E+00  0.000000E+00
        50   8 -3.785835E+05 -2.614072E+05 -1.279981E+05  1.442528E+05  1.852885E-11  0.000000E+00
        50   9 -3.900042E+05 -2.566058E+05 -1.293220E+05  1.539989E+05 -6.617445E-13 -2.646978E-12
        50  10 -3.500968E+05 -2.554147E+05 -1.211023E+05  1.197336E+05 -1.323489E-12  0.000000E+00
        50  11 -3.605892E+05 -2.494576E+05 -1.220094E+05  1.292531E+05 -4.963084E-12  4.632211E-12
        50  12 -3.712635E+05 -2.436403E+05 -1.229807E+05  1.388686E+05 -7.444626E-13 -1.654361E-12
        50  13 -3.588774E+05 -2.607687E+05 -1.239292E+05  1.270740E+05  0.000000E+00  0.000000E+00
        50  14 -3.697322E+05 -2.552887E+05 -1.250042E+05  1.366500E+05 -2.646978E-12  0.000000E+00
        50  15 -3.807735E+05 -2.499658E+05 -1.261479E+05  1.463308E+05 -1.654361E-12 -1.323489E-12
        50  16 -3.673545E+05 -2.663847E+05 -1.267478E+05  1.346203E+05  6.617445E-13  1.323489E-12
        50  17 -3.785835E+05 -2.614072E+05 -1.279981E+05  1.442528E+05 -6.617445E-13 -5.955700E-12
        50  18 -3.900042E+05 -2.566058E+05 -1.293220E+05  1.539989E+05 -4.135903E-13  1.654361E-12
        50  19 -3.500968E+05 -2.554147E+05 -1.211023E+05  1.197336E+05 -1.323489E-12 -1.191140E-11
        50  20 -3.605892E+05 -2.494576E+05 -1.220094E+05  1.292531E+05 -8.602678E-12  7.279189E-12
        50  21 -3.712635E+05 -2.436403E+05 -1.229807E+05  1.388686E+05 -1.323489E-11  3.143286E-12
        50  22 -3.588774E+05 -2.607687E+05 -1.239292E+05  1.270740E+05 -5.293956E-12  5.293956E-12
        50  23 -3.697322E+05 -2.552887E+05 -1.250042E+05  1.366500E+05  5.293956E-12 -7.940934E-12
        50  24 -3.807735E+05 -2.499658E+05 -1.261479E+05  1.463308E+05 -3.639595E-12  0.000000E+00
        50  25 -3.673545E+05 -2.663847E+05 -1.267478E+05  1.346203E+05  5.293956E-12  0.000000E+00
        50  26 -3.785835E+05 -2.614072E+05 -1.279981E+05  1.442528E+05 -7.940934E-12  1.058791E-11
        50  27 -3.900042E+05 -2.566058E+05 -1.293220E+05  1.539989E+05 -9.926167E-12  2.646978E-12
        51   1 -3.726786E+05 -2.691482E+05 -1.283654E+05  1.390142E+05  1.058791E-11 -5.293956E-12
        51   2 -3.839475E+05 -2.643143E+05 -1.296524E+05  1.485636E+05  1.124966E-11 -1.522012E-11
        51   3 -3.957429E+05 -2.600891E+05 -1.311664E+05  1.584803E+05  4.880366E-12  4.797648E-12
        51   4 -3.824923E+05 -2.722782E+05 -1.309541E+05  1.460919E+05  5.293956E-12 -1.588187E-11
        51   5 -3.938678E+05 -2.682482E+05 -1.324232E+05  1.557309E+05 -3.970467E-12  1.588187E-11
        51   6 -4.057665E+05 -2.648653E+05 -1.341264E+05  1.657448E+05 -1.985233E-12 -3.970467E-12
        51   7 -3.922232E+05 -2.756519E+05 -1.335750E+05  1.532195E+05 -5.293956E-12  1.588187E-11
        51   8 -4.037121E+05 -2.724503E+05 -1.352325E+05  1.629380E+05  1.588187E-11 -5.293956E-12
        51   9 -4.157215E+05 -2.699348E+05 -1.371313E+05  1.730381E+05  5.955700E-12  6.617445E-13
        51  10 -3.726786E+05 -2.691482E+05 -1.283654E+05  1.390142E+05  0.000000E+00 -1.323489E-12
        51  11 -3.839475E+05 -2.643143E+05 -1.296524E+05  1.485636E+05  1.985233E-12 -1.323489E-12
        51  12 -3.957429E+05 -2.600891E+05 -1.311664E+05  1.584803E+05  8.271806E-13  1.158053E-12
        51  13 -3.824923E+05 -2.722782E+05 -1.309541E+05  1.460919E+05  2.646978E-12 -2.646978E-12
        51  14 -3.938678E+05 -2.682482E+05 -1.324232E+05  1.557309E+05  1.323489E-12  1.323489E-12
        51  15 -4.057665E+05 -2.648653E+05 -1.341264E+05  1.657448E+05  3.639595E-12  4.632211E-12
        51  16 -3.922232E+05 -2.756519E+05 -1.335750E+05  1.532195E+05  6.617445E-13 -1.323489E-12
        51  17 -4.037121E+05 -2.724503E+05 -1.352325E+05  1.629380E+05  3.308722E-13  0.000000E+00
        51  18 -4.157215E+05 -2.699348E+05 -1.371313E+05  1.730381E+05  1.158053E-12  3.308722E-13
        51  19 -3.726786E+05 -2.691482E+05 -1.283654E+05  1.390142E+05 -5.293956E-12  5.293956E-12
        51  20 -3.839475E+05 -2.643143E+05 -1.296524E+05  1.485636E+05 -5.955700E-12  4.632211E-12
        51  21 -3.957429E+05 -2.600891E+05 -1.311664E+05  1.584803E+05 -4.880366E-12 -4.797648E-12
        51  22 -3.824923E+05 -2.722782E+05 -1.309541E+05  1.460919E+05 -5.293956E-12  1.588187E-11
        51  23 -3.938678E+05 -2.682482E+05 -1.324232E+05  1.557309E+05  3.970467E-12 -5.293956E-12
        51  24 -4.057665E+05 -2.648653E+05 -1.341264E+05  1.657448E+05 -8.602678E-12  3.970467E-12
        51  25 -3.922232E+05 -2.756519E+05 -1.335750E+05  1.532195E+05 -1.058791E-11 -5.293956E-12
        51  26 -4.037121E+05 -2.724503E+05 -1.352325E+05  1.629380E+05 -5.293956E-12  2.646978E-11
        51  27 -4.157215E+05 -2.699348E+05 -1.371313E+05  1.730381E+05 -1.654361E-11  9.926167E-12
        52   1 -3.487912E+05 -2.770075E+05 -1.251597E+05  1.154039E+05  1.191140E-11 -5.955700E-12
        52   2 -3.577989E+05 -2.736464E+05 -1.262891E+05  1.242978E+05  1.654361E-12 -1.257315E-11
        52   3 -3.669047E+05 -2.709491E+05 -1.275708E+05  1.335077E+05  8.437242E-12 -1.629546E-11
        52   4 -3.577279E+05 -2.789375E+05 -1.273331E+05  1.230904E+05 -2.646978E-12 -7.940934E-12
        52   5 -3.671751E+05 -2.762268E+05 -1.286804E+05  1.316476E+05 -1.588187E-11  5.293956E-12
        52   6 -3.767515E+05 -2.741973E+05 -1.301898E+05  1.405068E+05  1.323489E-12 -8.602678E-12
        52   7 -3.663603E+05 -2.801739E+05 -1.293068E+05  1.310043E+05 -5.293956E-12  1.058791E-11
        52   8 -3.762155E+05 -2.780747E+05 -1.308580E+05  1.392491E+05  2.646978E-12 -5.293956E-12
        52   9 -3.862273E+05 -2.766703E+05 -1.325795E+05  1.477843E+05  1.323489E-12  3.308722E-12
        52  10 -3.487912E+05 -2.770075E+05 -1.251597E+05  1.154039E+05  6.617445E-13  0.000000E+00
        52  11 -3.577989E+05 -2.736464E+05 -1.262891E+05  1.242978E+05  0.000000E+00 -6.617445E-13
        52  12 -3.669047E+05 -2.709491E+05 -1.275708E+05  1.335077E+05 -2.316106E-12  4.963084E-13
        52  13 -3.577279E+05 -2.789375E+05 -1.273331E+05  1.230904E+05 -1.323489E-12  2.646978E-12
        52  14 -3.671751E+05 -2.762268E+05 -1.286804E+05  1.316476E+05  0.000000E+00 -5.293956E-12
        52  15 -3.767515E+05 -2.741973E+05 -1.301898E+05  1.405068E+05  0.000000E+00  0.000000E+00
        52  16 -3.663603E+05 -2.801739E+05 -1.293068E+05  1.310043E+05 -1.323489E-12  0.000000E+00
        52  17 -3.762155E+05 -2.780747E+05 -1.308580E+05  1.392491E+05 -1.985233E-12  0.000000E+00
        52  18 -3.862273E+05 -2.766703E+05 -1.325795E+05  1.477843E+05 -1.819797E-12  9.926167E-13
        52  19 -3.487912E+05 -2.770075E+05 -1.251597E+05  1.154039E+05 -1.323489E-12 -4.632211E-12
        52  20 -3.577989E+05 -2.736464E+05 -1.262891E+05  1.242978E+05 -6.948317E-12  1.985233E-12
        52  21 -3.669047E+05 -2.709491E+05 -1.275708E+05  1.335077E+05  2.150670E-12  1.629546E-11
        52  22 -3.577279E+05 -2.789375E+05 -1.273331E+05  1.230904E+05 -2.646978E-12 -2.646978E-12
        52  23 -3.671751E+05 -2.762268E+05 -1.286804E+05  1.316476E+05  0.000000E+00 -5.293956E-12
        52  24 -3.767515E+05 -2.741973E+05 -1.301898E+05  1.405068E+05  3.970467E-12  1.919059E-11
        52  25 -3.663603E+05 -2.801739E+05 -1.293068E+05  1.310043E+05  1.588187E-11 -1.058791E-11
        52  26 -3.762155E+05 -2.780747E+05 -1.308580E+05  1.392491E+05 -1.323489E-11  1.588187E-11
        52  27 -3.862273E+05 -2.766703E+05 -1.325795E+05  1.477843E+05 -6.617445E-12  7.279189E-12
        53   1 -5.212826E+05 -2.302767E+05 -1.503119E+05  1.874259E+05  5.624828E-12 -2.977850E-12
        53   2 -5.197308E+05 -2.386790E+05 -1.516820E+05  1.932485E+05  6.617445E-13  1.488925E-12
        53   3 -5.192875E+05 -2.480239E+05 -1.534623E+05  1.996962E+05  9.678013E-12  7.444626E-12
        53   4 -5.326145E+05 -2.244330E+05 -1.514095E+05  1.878031E+05  6.617445E-12 -1.323489E-12
        53   5 -5.298443E+05 -2.331274E+05 -1.525944E+05  1.935826E+05 -2.646978E-12 -6.617445E-13
        53   6 -5.282032E+05 -2.427763E+05 -1.541959E+05  1.999958E+05  4.301339E-12 -5.790264E-12
        53   7 -5.443377E+05 -2.184681E+05 -1.525612E+05  1.880504E+05  1.058791E-11 -2.646978E-12
        53   8 -5.403339E+05 -2.274635E+05 -1.535595E+05  1.937883E+05  5.293956E-12 -9.264423E-12
        53   9 -5.374802E+05 -2.374254E+05 -1.549811E+05  2.001686E+05 -4.963084E-12 -6.617445E-13
        53  10 -5.212826E+05 -2.302767E+05 -1.503119E+05  1.874259E+05  0.000000E+00  3.308722E-13
        53  11 -5.197308E+05 -2.386790E+05 -1.516820E+05  1.932485E+05  3.308722E-13 -8.271806E-13
        53  12 -5.192875E+05 -2.480239E+05 -1.534623E+05  1.996962E+05  8.271806E-14  5.376674E-13
        53  13 -5.326145E+05 -2.244330E+05 -1.514095E+05  1.878031E+05  0.000000E+00 -1.323489E-12
        53  14 -5.298443E+05 -2.331274E+05 -1.525944E+05  1.935826E+05 -2.646978E-12 -4.632211E-12
        53  15 -5.282032E+05 -2.427763E+05 -1.541959E+05  1.999958E+05  8.271806E-13  1.654361E-13
        53  16 -5.443377E+05 -2.184681E+05 -1.525612E+05  1.880504E+05  0.000000E+00 -9.926167E-13
        53  17 -5.403339E+05 -2.274635E+05 -1.535595E+05  1.937883E+05  1.323489E-12 -3.308722E-13
        53  18 -5.374802E+05 -2.374254E+05 -1.549811E+05  2.001686E+05 -8.271806E-14  5.790264E-13
        53  19 -5.212826E+05 -2.302767E+05 -1.503119E+05  1.874259E+05 -5.624828E-12 -2.316106E-12
        53  20 -5.197308E+05 -2.386790E+05 -1.516820E+05  1.932485E+05 -6.617445E-13 -1.488925E-12
        53  21 -5.192875E+05 -2.480239E+05 -1.534623E+05  1.996962E+05 -4.384057E-12  3.143286E-12
        53  22 -5.326145E+05 -2.244330E+05 -1.514095E+05  1.878031E+05  3.970467E-12 -3.970467E-12
        53  23 -5.298443E+05 -2.331274E+05 -1.525944E+05  1.935826E+05  7.940934E-12  6.617445E-13
        53  24 -5.282032E+05 -2.427763E+05 -1.541959E+05  1.999958E+05 -9.595295E-12  5.790264E-12
        53  25 -5.443377E+05 -2.184681E+05 -1.525612E+05  1.880504E+05  0.000000E+00  0.000000E+00
        53  26 -5.403339E+05 -2.274635E+05 -1.535595E+05  1.937883E+05 -1.058791E-11 -1.323489E-12
        53  27 -5.374802E+05 -2.374254E+05 -1.549811E+05  2.001686E+05 -3.308722E-13  6.617445E-13
        54   1 -5.190317E+05 -2.536570E+05 -1.545377E+05  2.041845E+05  8.933551E-12 -4.301339E-12
        54   2 -5.186609E+05 -2.631705E+05 -1.563663E+05  2.137319E+05 -6.617445E-13 -8.106370E-12
        54   3 -5.201014E+05 -2.742546E+05 -1.588712E+05  2.243010E+05  8.023652E-12  5.376674E-12
        54   4 -5.269820E+05 -2.488411E+05 -1.551646E+05  2.045313E+05  5.293956E-12  0.000000E+00
        54   5 -5.248872E+05 -2.592558E+05 -1.568286E+05  2.141514E+05 -2.646978E-12  0.000000E+00
        54   6 -5.245775E+05 -2.712541E+05 -1.591663E+05  2.247929E+05 -7.610062E-12 -8.271806E-13
        54   7 -5.353154E+05 -2.439813E+05 -1.558593E+05  2.047296E+05  1.058791E-11 -7.940934E-12
        54   8 -5.315103E+05 -2.553042E+05 -1.573629E+05  2.144151E+05  7.940934E-12  2.646978E-12
        54   9 -5.294645E+05 -2.682238E+05 -1.595377E+05  2.251215E+05  1.323489E-11  1.985233E-12
        54  10 -5.190317E+05 -2.536570E+05 -1.545377E+05  2.041845E+05 -6.617445E-13  0.000000E+00
        54  11 -5.186609E+05 -2.631705E+05 -1.563663E+05  2.137319E+05 -1.985233E-12  6.617445E-13
        54  12 -5.201014E+05 -2.742546E+05 -1.588712E+05  2.243010E+05  0.000000E+00  0.000000E+00
        54  13 -5.269820E+05 -2.488411E+05 -1.551646E+05  2.045313E+05  0.000000E+00  1.323489E-12
        54  14 -5.248872E+05 -2.592558E+05 -1.568286E+05  2.141514E+05 -6.617445E-13 -6.617445E-13
        54  15 -5.245775E+05 -2.712541E+05 -1.591663E+05  2.247929E+05  1.158053E-12  1.654361E-13
        54  16 -5.353154E+05 -2.439813E+05 -1.558593E+05  2.047296E+05 -6.617445E-13 -9.926167E-13
        54  17 -5.315103E+05 -2.553042E+05 -1.573629E+05  2.144151E+05 -9.926167E-13 -3.308722E-13
        54  18 -5.294645E+05 -2.682238E+05 -1.595377E+05  2.251215E+05  4.135903E-13  4.963084E-13
        54  19 -5.190317E+05 -2.536570E+05 -1.545377E+05  2.041845E+05 -8.933551E-12  4.301339E-12
        54  20 -5.186609E+05 -2.631705E+05 -1.563663E+05  2.137319E+05  5.955700E-12  8.106370E-12
        54  21 -5.201014E+05 -2.742546E+05 -1.588712E+05  2.243010E+05 -8.023652E-12 -8.271806E-14
        54  22 -5.269820E+05 -2.488411E+05 -1.551646E+05  2.045313E+05 -5.293956E-12  0.000000E+00
        54  23 -5.248872E+05 -2.592558E+05 -1.568286E+05  2.141514E+05  2.646978E-12  0.000000E+00
        54  24 -5.245775E+05 -2.712541E+05 -1.591663E+05  2.247929E+05 -2.977850E-12 -4.466775E-12
        54  25 -5.353154E+05 -2.439813E+05 -1.558593E+05  2.047296E+05 -5.293956E-12  2.646978E-12
        54  26 -5.315103E+05 -2.553042E+05 -1.573629E+05  2.144151E+05 -2.646978E-12  2.646978E-12
        54  27 -5.294645E+05 -2.682238E+05 -1.595377E+05  2.251215E+05 -1.323489E-11  3.308722E-12
        55   1 -5.395378E+05 -2.410748E+05 -1.561225E+05  2.044259E+05  7.610062E-12  3.970467E-12
        55   2 -5.342729E+05 -2.526754E+05 -1.573897E+05  2.140312E+05 -7.444626E-12  7.610062E-12
        55   3 -5.311135E+05 -2.660834E+05 -1.594394E+05  2.248389E+05 -1.087743E-11 -1.902515E-12
        55   4 -5.446555E+05 -2.359271E+05 -1.561165E+05  2.028218E+05  1.323489E-12  0.000000E+00
        55   5 -5.373218E+05 -2.486863E+05 -1.572016E+05  2.127695E+05 -5.293956E-12 -1.323489E-12
        55   6 -5.319662E+05 -2.632307E+05 -1.590394E+05  2.238815E+05 -5.293956E-12  2.316106E-12
        55   7 -5.501045E+05 -2.307332E+05 -1.561675E+05  2.010926E+05  2.646978E-12 -7.940934E-12
        55   8 -5.407931E+05 -2.446508E+05 -1.570888E+05  2.113533E+05 -2.646978E-12  2.646978E-12
        55   9 -5.333412E+05 -2.603321E+05 -1.587347E+05  2.227402E+05 -1.091878E-11 -2.977850E-12
        55  10 -5.395378E+05 -2.410748E+05 -1.561225E+05  2.044259E+05 -6.617445E-13 -3.308722E-13
        55  11 -5.342729E+05 -2.526754E+05 -1.573897E+05  2.140312E+05  0.000000E+00  6.617445E-13
        55  12 -5.311135E+05 -2.660834E+05 -1.594394E+05  2.248389E+05  0.000000E+00  7.858216E-13
        55  13 -5.446555E+05 -2.359271E+05 -1.561165E+05  2.028218E+05  0.000000E+00  0.000000E+00
        55  14 -5.373218E+05 -2.486863E+05 -1.572016E+05  2.127695E+05  6.617445E-13  1.323489E-12
        55  15 -5.319662E+05 -2.632307E+05 -1.590394E+05  2.238815E+05  8.271806E-13 -1.323489E-12
        55  16 -5.501045E+05 -2.307332E+05 -1.561675E+05  2.010926E+05  0.000000E+00  0.000000E+00
        55  17 -5.407931E+05 -2.446508E+05 -1.570888E+05  2.113533E+05 -2.316106E-12 -3.308722E-13
        55  18 -5.333412E+05 -2.603321E+05 -1.587347E+05  2.227402E+05 -5.790264E-13  2.481542E-13
        55  19 -5.395378E+05 -2.410748E+05 -1.561225E+05  2.044259E+05 -7.610062E-12 -1.323489E-12
        55  20 -5.342729E+05 -2.526754E+05 -1.573897E+05  2.140312E+05  2.150670E-12 -7.610062E-12
        55  21 -5.311135E+05 -2.660834E+05 -1.594394E+05  2.248389E+05  2.895132E-13  1.902515E-12
        55  22 -5.446555E+05 -2.359271E+05 -1.561165E+05  2.028218E+05 -1.323489E-12  2.646978E-12
        55  23 -5.373218E+05 -2.486863E+05 -1.572016E+05  2.127695E+05 -5.293956E-12 -3.970467E-12
        55  24 -5.319662E+05 -2.632307E+05 -1.590394E+05  2.238815E+05  5.293956E-12  2.977850E-12
        55  25 -5.501045E+05 -2.307332E+05 -1.561675E+05  2.010926E+05 -2.646978E-12  0.000000E+00
        55  26 -5.407931E+05 -2.446508E+05 -1.570888E+05  2.113533E+05  2.646978E-12  2.646978E-12
        55  27 -5.333412E+05 -2.603321E+05 -1.587347E+05  2.227402E+05 -4.963084E-12  3.308722E-13
        56   1 -5.514922E+05 -2.139601E+05 -1.530905E+05  1.874434E+05 -1.985233E-12  4.963084E-12
        56   2 -5.459716E+05 -2.234033E+05 -1.538750E+05  1.931359E+05 -6.617445E-13  1.985233E-12
        56   3 -5.421424E+05 -2.343182E+05 -1.552921E+05  1.997908E+05 -6.658804E-12 -5.790264E-13
        56   4 -5.626465E+05 -2.067162E+05 -1.538725E+05  1.853954E+05  5.293956E-12  0.000000E+00
        56   5 -5.547874E+05 -2.172104E+05 -1.543996E+05  1.913616E+05 -3.308722E-12 -1.323489E-12
        56   6 -5.482937E+05 -2.290201E+05 -1.554628E+05  1.981474E+05  2.646978E-12  1.488925E-12
        56   7 -5.739851E+05 -1.987147E+05 -1.545400E+05  1.833295E+05  7.940934E-12 -1.323489E-12
        56   8 -5.640347E+05 -2.102139E+05 -1.548497E+05  1.894957E+05 -3.970467E-12 -2.646978E-12
        56   9 -5.551739E+05 -2.228864E+05 -1.556121E+05  1.963498E+05  4.963084E-12 -3.805031E-12
        56  10 -5.514922E+05 -2.139601E+05 -1.530905E+05  1.874434E+05 -3.308722E-13  3.308722E-13
        56  11 -5.459716E+05 -2.234033E+05 -1.538750E+05  1.931359E+05 -3.308722E-13 -4.963084E-13
        56  12 -5.421424E+05 -2.343182E+05 -1.552921E+05  1.997908E+05  9.926167E-13 -2.067952E-13
        56  13 -5.626465E+05 -2.067162E+05 -1.538725E+05  1.853954E+05  0.000000E+00 -6.617445E-13
        56  14 -5.547874E+05 -2.172104E+05 -1.543996E+05  1.913616E+05  6.617445E-13  9.926167E-13
        56  15 -5.482937E+05 -2.290201E+05 -1.554628E+05  1.981474E+05  1.158053E-12 -1.654361E-13
        56  16 -5.739851E+05 -1.987147E+05 -1.545400E+05  1.833295E+05  0.000000E+00  3.308722E-13
        56  17 -5.640347E+05 -2.102139E+05 -1.548497E+05  1.894957E+05 -3.308722E-13 -1.654361E-13
        56  18 -5.551739E+05 -2.228864E+05 -1.556121E+05  1.963498E+05  1.654361E-13  5.790264E-13
        56  19 -5.514922E+05 -2.139601E+05 -1.530905E+05  1.874434E+05 -3.308722E-12 -7.610062E-12
        56  20 -5.459716E+05 -2.234033E+05 -1.538750E+05  1.931359E+05  5.955700E-12  3.308722E-12
        56  21 -5.421424E+05 -2.343182E+05 -1.552921E+05  1.997908E+05  1.364848E-12  5.790264E-13
        56  22 -5.626465E+05 -2.067162E+05 -1.538725E+05  1.853954E+05 -2.646978E-12  0.000000E+00
        56  23 -5.547874E+05 -2.172104E+05 -1.543996E+05  1.913616E+05 -1.985233E-12 -1.323489E-12
        56  24 -5.482937E+05 -2.290201E+05 -1.554628E+05  1.981474E+05 -2.646978E-12 -4.135903E-12
        56  25 -5.739851E+05 -1.987147E+05 -1.545400E+05  1.833295E+05  2.646978E-12  1.323489E-12
        56  26 -5.640347E+05 -2.102139E+05 -1.548497E+05  1.894957E+05 -1.323489E-12  2.646978E-12
        56  27 -5.551739E+05 -2.228864E+05 -1.556121E+05  1.963498E+05 -4.963084E-12  1.158053E-12
        57   1 -1.277383E+05 -2.554589E+05 -7.663945E+04  5.762073E+04 -6.286573E-12  6.700163E-12
        57   2 -1.182217E+05 -2.301344E+05 -6.967122E+04  4.196627E+04 -6.824240E-12  5.376674E-12
        57   3 -1.129355E+05 -2.046359E+05 -6.351428E+04  2.876772E+04 -3.360421E-12  5.128520E-12
        57   4 -1.589684E+05 -2.409121E+05 -7.997609E+04  7.480566E+04 -3.308722E-12  5.624828E-12
        57   5 -1.465259E+05 -2.223295E+05 -7.377106E+04  5.975415E+04 -1.654361E-12 -8.271806E-13
        57   6 -1.372413E+05 -2.033085E+05 -6.810996E+04  4.634688E+04 -3.680954E-12  3.350081E-12
        57   7 -1.896073E+05 -2.253027E+05 -8.298200E+04  9.079258E+04 -2.646978E-12  4.632211E-12
        57   8 -1.735560E+05 -2.106284E+05 -7.683688E+04  7.562795E+04 -3.639595E-12  4.301339E-12
        57   9 -1.598368E+05 -1.956746E+05 -7.110229E+04  6.155954E+04 -5.376674E-12  3.805031E-12
        57  10 -1.277383E+05 -2.554589E+05 -7.663945E+04  5.762073E+04  0.000000E+00 -8.271806E-14
        57  11 -1.182217E+05 -2.301344E+05 -6.967122E+04  4.196627E+04 -8.271806E-14  1.654361E-13
        57  12 -1.129355E+05 -2.046359E+05 -6.351428E+04  2.876772E+04 -1.033976E-13 -1.757759E-13
        57  13 -1.589684E+05 -2.409121E+05 -7.997609E+04  7.480566E+04  0.000000E+00  3.308722E-13
        57  14 -1.465259E+05 -2.223295E+05 -7.377106E+04  5.975415E+04  3.308722E-13  0.000000E+00
        57  15 -1.372413E+05 -2.033085E+05 -6.810996E+04  4.634688E+04 -2.067952E-13  2.688337E-13
        57  16 -1.896073E+05 -2.253027E+05 -8.298200E+04  9.079258E+04  0.000000E+00  0.000000E+00
        57  17 -1.735560E+05 -2.106284E+05 -7.683688E+04  7.562795E+04 -4.135903E-13 -3.722313E-13
        57  18 -1.598368E+05 -1.956746E+05 -7.110229E+04  6.155954E+04 -6.203855E-14 -5.169879E-14
        57  19 -1.277383E+05 -2.554589E+05 -7.663945E+04  5.762073E+04  3.639595E-12 -6.700163E-12
        57  20 -1.182217E+05 -2.301344E+05 -6.967122E+04  4.196627E+04  4.177262E-12 -5.376674E-12
        57  21 -1.129355E+05 -2.046359E+05 -6.351428E+04  2.876772E+04  4.683910E-12 -5.128520E-12
        57  22 -1.589684E+05 -2.409121E+05 -7.997609E+04  7.480566E+04  3.308722E-12 -4.963084E-12
        57  23 -1.465259E+05 -2.223295E+05 -7.377106E+04  5.975415E+04  3.308722E-13 -1.819797E-12
        57  24 -1.372413E+05 -2.033085E+05 -6.810996E+04  4.634688E+04  2.357465E-12 -4.011826E-12
        57  25 -1.896073E+05 -2.253027E+05 -8.298200E+04  9.079258E+04  5.293956E-12 -5.955700E-12
        57  26 -1.735560E+05 -2.106284E+05 -7.683688E+04  7.562795E+04  4.301339E-12 -4.301339E-12
        57  27 -1.598368E+05 -1.956746E+05 -7.110229E+04  6.155954E+04  4.053185E-12 -3.143286E-12
        58   1 -1.107714E+05 -1.933480E+05 -6.082387E+04  2.307485E+04 -4.384057E-12  6.121137E-12
        58   2 -1.064686E+05 -1.742186E+05 -5.613744E+04  1.496567E+04 -3.184645E-12  4.466775E-12
        58   3 -1.052017E+05 -1.561288E+05 -5.226610E+04  8.466450E+03 -1.602662E-12  3.479328E-12
        58   4 -1.324511E+05 -1.921485E+05 -6.491990E+04  3.897084E+04 -1.985233E-12  3.308722E-12
        58   5 -1.257492E+05 -1.773136E+05 -6.061256E+04  2.949267E+04 -1.654361E-13  1.158053E-12
        58   6 -1.212667E+05 -1.628275E+05 -5.681884E+04  2.101719E+04 -1.613002E-12  3.515518E-12
        58   7 -1.532255E+05 -1.873536E+05 -6.811582E+04  5.408345E+04 -3.308722E-12  3.970467E-12
        58   8 -1.436601E+05 -1.746254E+05 -6.365710E+04  4.287441E+04 -3.639595E-12  3.970467E-12
        58   9 -1.356731E+05 -1.621074E+05 -5.955609E+04  3.220483E+04 -1.985233E-12  3.391441E-12
        58  10 -1.107714E+05 -1.933480E+05 -6.082387E+04  2.307485E+04  0.000000E+00  0.000000E+00
        58  11 -1.064686E+05 -1.742186E+05 -5.613744E+04  1.496567E+04 -4.135903E-14 -1.654361E-13
        58  12 -1.052017E+05 -1.561288E+05 -5.226610E+04  8.466450E+03 -1.550964E-13 -3.101927E-14
        58  13 -1.324511E+05 -1.921485E+05 -6.491990E+04  3.897084E+04  3.308722E-13 -1.654361E-13
        58  14 -1.257492E+05 -1.773136E+05 -6.061256E+04  2.949267E+04 -1.654361E-13 -8.271806E-14
        58  15 -1.212667E+05 -1.628275E+05 -5.681884E+04  2.101719E+04  8.271806E-14  6.203855E-14
        58  16 -1.532255E+05 -1.873536E+05 -6.811582E+04  5.408345E+04  8.271806E-14  2.481542E-13
        58  17 -1.436601E+05 -1.746254E+05 -6.365710E+04  4.287441E+04  5.790264E-13 -1.240771E-13
        58  18 -1.356731E+05 -1.621074E+05 -5.955609E+04  3.220483E+04 -1.344168E-13 -3.101927E-14
        58  19 -1.107714E+05 -1.933480E+05 -6.082387E+04  2.307485E+04  3.722313E-12 -4.797648E-12
        58  20 -1.064686E+05 -1.742186E+05 -5.613744E+04  1.496567E+04  2.522901E-12 -3.805031E-12
        58  21 -1.052017E+05 -1.561288E+05 -5.226610E+04  8.466450E+03  1.602662E-12 -3.479328E-12
        58  22 -1.324511E+05 -1.921485E+05 -6.491990E+04  3.897084E+04  1.985233E-12 -3.308722E-12
        58  23 -1.257492E+05 -1.773136E+05 -6.061256E+04  2.949267E+04  1.654361E-13  1.654361E-13
        58  24 -1.212667E+05 -1.628275E+05 -5.681884E+04  2.101719E+04  9.512577E-13 -2.853773E-12
        58  25 -1.532255E+05 -1.873536E+05 -6.811582E+04  5.408345E+04  3.308722E-12 -3.970467E-12
        58  26 -1.436601E+05 -1.746254E+05 -6.365710E+04  4.287441E+04  1.654361E-12 -2.646978E-12
        58  27 -1.356731E+05 -1.621074E+05 -5.955609E+04  3.220483E+04  1.985233E-12 -4.053185E-12
        59   1 -1.668606E+05 -1.835902E+05 -7.009016E+04  6.004786E+04 -2.936491E-12  4.177262E-12
        59   2 -1.547467E+05 -1.712063E+05 -6.519060E+04  4.851211E+04 -2.688337E-12  3.350081E-12
        59   3 -1.468197E+05 -1.596658E+05 -6.129710E+04  3.785023E+04 -2.915812E-12  4.492625E-12
        59   4 -1.878407E+05 -1.742336E+05 -7.241487E+04  6.791240E+04 -1.654361E-12  2.316106E-12
        59   5 -1.741022E+05 -1.633426E+05 -6.748897E+04  5.609974E+04  1.654361E-13  2.481542E-13
        59   6 -1.642583E+05 -1.532221E+05 -6.349607E+04  4.509607E+04 -1.571643E-12  1.923195E-12
        59   7 -2.083006E+05 -1.626135E+05 -7.418281E+04  7.543479E+04 -3.308722E-12  2.977850E-12
        59   8 -1.929885E+05 -1.530738E+05 -6.921246E+04  6.330799E+04 -1.654361E-12  2.150670E-12
        59   9 -1.813090E+05 -1.442408E+05 -6.510996E+04  5.193256E+04 -2.233388E-12  2.977850E-12
        59  10 -1.668606E+05 -1.835902E+05 -7.009016E+04  6.004786E+04  8.271806E-14  4.135903E-14
        59  11 -1.547467E+05 -1.712063E+05 -6.519060E+04  4.851211E+04  4.135903E-14  0.000000E+00
        59  12 -1.468197E+05 -1.596658E+05 -6.129710E+04  3.785023E+04  3.101927E-14 -6.203855E-14
        59  13 -1.878407E+05 -1.742336E+05 -7.241487E+04  6.791240E+04  1.654361E-13  0.000000E+00
        59  14 -1.741022E+05 -1.633426E+05 -6.748897E+04  5.609974E+04  0.000000E+00 -8.271806E-14
        59  15 -1.642583E+05 -1.532221E+05 -6.349607E+04  4.509607E+04  1.447566E-13  1.240771E-13
        59  16 -2.083006E+05 -1.626135E+05 -7.418281E+04  7.543479E+04  8.271806E-14  8.271806E-14
        59  17 -1.929885E+05 -1.530738E+05 -6.921246E+04  6.330799E+04  8.271806E-14  4.135903E-14
        59  18 -1.813090E+05 -1.442408E+05 -6.510996E+04  5.193256E+04 -5.169879E-14 -1.033976E-14
        59  19 -1.668606E+05 -1.835902E+05 -7.009016E+04  6.004786E+04  2.274747E-12 -3.515518E-12
        59  20 -1.547467E+05 -1.712063E+05 -6.519060E+04  4.851211E+04  2.026593E-12 -2.688337E-12
        59  21 -1.468197E+05 -1.596658E+05 -6.129710E+04  3.785023E+04  2.915812E-12 -4.492625E-12
        59  22 -1.878407E+05 -1.742336E+05 -7.241487E+04  6.791240E+04  1.654361E-12 -2.977850E-12
        59  23 -1.741022E+05 -1.633426E+05 -6.748897E+04  5.609974E+04 -1.654361E-13  8.271806E-14
        59  24 -1.642583E+05 -1.532221E+05 -6.349607E+04  4.509607E+04  2.233388E-12 -2.915812E-12
        59  25 -2.083006E+05 -1.626135E+05 -7.418281E+04  7.543479E+04  3.970467E-12 -2.977850E-12
        59  26 -1.929885E+05 -1.530738E+05 -6.921246E+04  6.330799E+04  1.654361E-12 -2.812414E-12
        59  27 -1.813090E+05 -1.442408E+05 -6.510996E+04  5.193256E+04  9.098987E-13 -2.977850E-12
        60   1 -2.068947E+05 -2.168658E+05 -8.475211E+04  9.613333E+04 -5.045802E-12  3.474159E-12
        60   2 -1.880825E+05 -2.033504E+05 -7.828658E+04  8.137969E+04 -2.398824E-12  1.406207E-12
        60   3 -1.741097E+05 -1.903939E+05 -7.290073E+04  6.735570E+04 -3.556877E-12  3.742992E-12
        60   4 -2.329176E+05 -2.007994E+05 -8.674341E+04  1.027581E+05 -3.970467E-12  2.977850E-12
        60   5 -2.123808E+05 -1.901618E+05 -8.050850E+04  8.882221E+04  4.963084E-13  9.926167E-13
        60   6 -1.962837E+05 -1.801610E+05 -7.528893E+04  7.557479E+04 -2.026593E-12  3.846390E-12
        60   7 -2.587524E+05 -1.840646E+05 -8.856340E+04  1.090701E+05 -3.308722E-12  3.970467E-12
        60   8 -2.364227E+05 -1.759657E+05 -8.247767E+04  9.580812E+04 -1.654361E-12  1.985233E-12
        60   9 -2.181467E+05 -1.685508E+05 -7.733949E+04  8.318392E+04 -2.316106E-12  2.150670E-12
        60  10 -2.068947E+05 -2.168658E+05 -8.475211E+04  9.613333E+04  0.000000E+00  0.000000E+00
        60  11 -1.880825E+05 -2.033504E+05 -7.828658E+04  8.137969E+04 -4.135903E-14 -1.240771E-13
        60  12 -1.741097E+05 -1.903939E+05 -7.290073E+04  6.735570E+04 -8.271806E-14  6.203855E-14
        60  13 -2.329176E+05 -2.007994E+05 -8.674341E+04  1.027581E+05  0.000000E+00  1.654361E-13
        60  14 -2.123808E+05 -1.901618E+05 -8.050850E+04  8.882221E+04 -1.654361E-13  1.654361E-13
        60  15 -1.962837E+05 -1.801610E+05 -7.528893E+04  7.557479E+04 -4.135903E-14 -1.447566E-13
        60  16 -2.587524E+05 -1.840646E+05 -8.856340E+04  1.090701E+05 -8.271806E-14  0.000000E+00
        60  17 -2.364227E+05 -1.759657E+05 -8.247767E+04  9.580812E+04  8.271806E-14 -4.135903E-14
        60  18 -2.181467E+05 -1.685508E+05 -7.733949E+04  8.318392E+04 -6.203855E-14 -2.171349E-13
        60  19 -2.068947E+05 -2.168658E+05 -8.475211E+04  9.613333E+04  3.722313E-12 -3.474159E-12
        60  20 -1.880825E+05 -2.033504E+05 -7.828658E+04  8.137969E+04  3.060568E-12 -2.729696E-12
        60  21 -1.741097E+05 -1.903939E+05 -7.290073E+04  6.735570E+04  3.556877E-12 -3.081248E-12
        60  22 -2.329176E+05 -2.007994E+05 -8.674341E+04  1.027581E+05  5.293956E-12 -3.639595E-12
        60  23 -2.123808E+05 -1.901618E+05 -8.050850E+04  8.882221E+04  1.654361E-13 -9.926167E-13
        60  24 -1.962837E+05 -1.801610E+05 -7.528893E+04  7.557479E+04  2.688337E-12 -3.846390E-12
        60  25 -2.587524E+05 -1.840646E+05 -8.856340E+04  1.090701E+05  1.985233E-12 -3.308722E-12
        60  26 -2.364227E+05 -1.759657E+05 -8.247767E+04  9.580812E+04  1.654361E-12 -1.985233E-12
        60  27 -2.181467E+05 -1.685508E+05 -7.733949E+04  8.318392E+04  2.316106E-12 -2.150670E-12
        61   1 -1.896914E+05 -2.911084E+05 -9.615995E+04  2.082579E+05  7.858216E-13  4.301339E-12
        61   2 -1.892508E+05 -2.837390E+05 -9.459796E+04  2.241871E+05  6.307252E-13 -4.963084E-13
        61   3 -1.881378E+05 -2.704030E+05 -9.170816E+04  2.416939E+05  7.522174E-13  1.695720E-12
        61   4 -1.779024E+05 -3.168080E+05 -9.894208E+04  1.910713E+05  9.926167E-13  1.323489E-12
        61   5 -1.700347E+05 -3.127360E+05 -9.655413E+04  2.072558E+05 -3.722313E-13 -1.985233E-12
        61   6 -1.612057E+05 -3.026251E+05 -9.276615E+04  2.250484E+05  2.998530E-13  1.158053E-12
        61   7 -1.829774E+05 -3.462037E+05 -1.058362E+05  1.703244E+05  3.308722E-13 -2.646978E-12
        61   8 -1.680872E+05 -3.457082E+05 -1.027591E+05  1.866603E+05  1.654361E-13 -2.646978E-12
        61   9 -1.519540E+05 -3.391152E+05 -9.821383E+04  2.046302E+05  1.447566E-13 -1.985233E-12
        61  10 -1.896914E+05 -2.911084E+05 -9.615995E+04  2.082579E+05  4.135903E-14 -3.308722E-13
        61  11 -1.892508E+05 -2.837390E+05 -9.459796E+04  2.241871E+05  2.067952E-14  0.000000E+00
        61  12 -1.881378E+05 -2.704030E+05 -9.170816E+04  2.416939E+05  5.169879E-14  2.067952E-13
        61  13 -1.779024E+05 -3.168080E+05 -9.894208E+04  1.910713E+05  8.271806E-14 -1.323489E-12
        61  14 -1.700347E+05 -3.127360E+05 -9.655413E+04  2.072558E+05 -8.271806E-14 -3.308722E-13
        61  15 -1.612057E+05 -3.026251E+05 -9.276615E+04  2.250484E+05 -4.135903E-14 -4.963084E-13
        61  16 -1.829774E+05 -3.462037E+05 -1.058362E+05  1.703244E+05  4.135903E-14 -6.617445E-13
        61  17 -1.680872E+05 -3.457082E+05 -1.027591E+05  1.866603E+05 -6.203855E-14 -1.654361E-13
        61  18 -1.519540E+05 -3.391152E+05 -9.821383E+04  2.046302E+05  5.169879E-14 -3.308722E-13
        61  19 -1.896914E+05 -2.911084E+05 -9.615995E+04  2.082579E+05 -7.858216E-13 -4.301339E-12
        61  20 -1.892508E+05 -2.837390E+05 -9.459796E+04  2.241871E+05 -6.307252E-13  3.143286E-12
        61  21 -1.881378E+05 -2.704030E+05 -9.170816E+04  2.416939E+05 -1.413962E-12  9.512577E-13
        61  22 -1.779024E+05 -3.168080E+05 -9.894208E+04  1.910713E+05 -6.617445E-13 -1.323489E-12
        61  23 -1.700347E+05 -3.127360E+05 -9.655413E+04  2.072558E+05  3.722313E-13 -6.617445E-13
        61  24 -1.612057E+05 -3.026251E+05 -9.276615E+04  2.250484E+05 -2.998530E-13  2.812414E-12
        61  25 -1.829774E+05 -3.462037E+05 -1.058362E+05  1.703244E+05 -1.654361E-13 -2.646978E-12
        61  26 -1.680872E+05 -3.457082E+05 -1.027591E+05  1.866603E+05 -4.963084E-13  2.646978E-12
        61  27 -1.519540E+05 -3.391152E+05 -9.821383E+04  2.046302E+05 -4.756289E-13 -3.308722E-12
        62   1 -1.848932E+05 -2.617105E+05 -8.932076E+04  2.508794E+05  6.617445E-13 -1.985233E-12
        62   2 -1.880348E+05 -2.479738E+05 -8.720172E+04  2.601875E+05  4.239301E-13  4.135903E-13
        62   3 -1.902130E+05 -2.261574E+05 -8.327408E+04  2.711387E+05  2.520316E-13 -7.858216E-13
        62   4 -1.673641E+05 -2.969983E+05 -9.287249E+04  2.351285E+05  5.790264E-13 -1.323489E-12
        62   5 -1.623032E+05 -2.790251E+05 -8.826565E+04  2.536931E+05 -2.895132E-13 -1.323489E-12
        62   6 -1.558882E+05 -2.535619E+05 -8.189002E+04  2.745516E+05  7.703119E-13 -5.790264E-13
        62   7 -1.379810E+05 -3.293118E+05 -9.345856E+04  2.190698E+05  4.963084E-13  0.000000E+00
        62   8 -1.234098E+05 -3.067054E+05 -8.602304E+04  2.463356E+05  1.654361E-13  4.632211E-12
        62   9 -1.069924E+05 -2.770779E+05 -7.681406E+04  2.763991E+05  3.412120E-13  6.617445E-13
        62  10 -1.848932E+05 -2.617105E+05 -8.932076E+04  2.508794E+05  4.135903E-14 -1.654361E-13
        62  11 -1.880348E+05 -2.479738E+05 -8.720172E+04  2.601875E+05  4.135903E-14  2.481542E-13
        62  12 -1.902130E+05 -2.261574E+05 -8.327408E+04  2.711387E+05 -3.618915E-14 -1.861156E-13
        62  13 -1.673641E+05 -2.969983E+05 -9.287249E+04  2.351285E+05  8.271806E-14  0.000000E+00
        62  14 -1.623032E+05 -2.790251E+05 -8.826565E+04  2.536931E+05 -4.135903E-14  0.000000E+00
        62  15 -1.558882E+05 -2.535619E+05 -8.189002E+04  2.745516E+05 -7.237830E-14 -4.963084E-13
        62  16 -1.379810E+05 -3.293118E+05 -9.345856E+04  2.190698E+05  4.135903E-14 -1.654361E-13
        62  17 -1.234098E+05 -3.067054E+05 -8.602304E+04  2.463356E+05  0.000000E+00 -4.135903E-13
        62  18 -1.069924E+05 -2.770779E+05 -7.681406E+04  2.763991E+05  2.067952E-14  1.447566E-13
        62  19 -1.848932E+05 -2.617105E+05 -8.932076E+04  2.508794E+05 -9.926167E-13 -6.617445E-13
        62  20 -1.880348E+05 -2.479738E+05 -8.720172E+04  2.601875E+05 -7.548023E-13 -1.737079E-12
        62  21 -1.902130E+05 -2.261574E+05 -8.327408E+04  2.711387E+05  7.884065E-14  7.858216E-13
        62  22 -1.673641E+05 -2.969983E+05 -9.287249E+04  2.351285E+05 -5.790264E-13  1.323489E-12
        62  23 -1.623032E+05 -2.790251E+05 -8.826565E+04  2.536931E+05 -4.135903E-14  1.323489E-12
        62  24 -1.558882E+05 -2.535619E+05 -8.189002E+04  2.745516E+05 -4.394397E-13  5.790264E-13
        62  25 -1.379810E+05 -3.293118E+05 -9.345856E+04  2.190698E+05 -3.308722E-13  1.323489E-12
        62  26 -1.234098E+05 -3.067054E+05 -8.602304E+04  2.463356E+05 -3.308722E-13  6.617445E-13
        62  27 -1.069924E+05 -2.770779E+05 -7.681406E+04  2.763991E+05 -1.757759E-13  6.617445E-13
        63   1 -1.284001E+05 -3.619662E+05 -9.807326E+04  1.953553E+05  4.963084E-13 -2.646978E-12
        63   2 -1.075057E+05 -3.476144E+05 -9.102401E+04  2.197641E+05  2.895132E-13  1.654361E-13
        63   3 -8.440619E+04 -3.261051E+05 -8.210225E+04  2.490728E+05  4.135903E-13  1.075335E-12
        63   4 -1.502940E+05 -3.828602E+05 -1.066309E+05  1.183402E+05  3.308722E-13 -1.323489E-12
        63   5 -1.088212E+05 -3.726851E+05 -9.630125E+04  1.353695E+05  0.000000E+00 -4.632211E-12
        63   6 -6.525660E+04 -3.551385E+05 -8.407902E+04  1.575258E+05  1.116694E-12 -8.271806E-13
        63   7 -2.276674E+05 -4.173289E+05 -1.289993E+05  3.507488E+04  3.308722E-13 -2.646978E-12
        63   8 -1.643319E+05 -4.110800E+05 -1.150824E+05  4.481575E+04  3.308722E-13  1.323489E-12
        63   9 -9.904089E+04 -3.972466E+05 -9.925749E+04  5.991242E+04  1.116694E-12  5.624828E-12
        63  10 -1.284001E+05 -3.619662E+05 -9.807326E+04  1.953553E+05  2.067952E-14  3.308722E-13
        63  11 -1.075057E+05 -3.476144E+05 -9.102401E+04  2.197641E+05  1.033976E-14  1.654361E-13
        63  12 -8.440619E+04 -3.261051E+05 -8.210225E+04  2.490728E+05 -3.360421E-14  2.067952E-13
        63  13 -1.502940E+05 -3.828602E+05 -1.066309E+05  1.183402E+05  0.000000E+00  0.000000E+00
        63  14 -1.088212E+05 -3.726851E+05 -9.630125E+04  1.353695E+05  6.203855E-14  3.308722E-13
        63  15 -6.525660E+04 -3.551385E+05 -8.407902E+04  1.575258E+05  1.033976E-14 -6.617445E-13
        63  16 -2.276674E+05 -4.173289E+05 -1.289993E+05  3.507488E+04  2.067952E-14  0.000000E+00
        63  17 -1.643319E+05 -4.110800E+05 -1.150824E+05  4.481575E+04  2.067952E-14 -3.308722E-13
        63  18 -9.904089E+04 -3.972466E+05 -9.925749E+04  5.991242E+04 -5.169879E-15  3.308722E-13
        63  19 -1.284001E+05 -3.619662E+05 -9.807326E+04  1.953553E+05 -4.963084E-13  2.646978E-12
        63  20 -1.075057E+05 -3.476144E+05 -9.102401E+04  2.197641E+05 -2.895132E-13 -1.654361E-13
        63  21 -8.440619E+04 -3.261051E+05 -8.210225E+04  2.490728E+05 -3.308722E-13  1.571643E-12
        63  22 -1.502940E+05 -3.828602E+05 -1.066309E+05  1.183402E+05 -3.308722E-13  1.323489E-12
        63  23 -1.088212E+05 -3.726851E+05 -9.630125E+04  1.353695E+05 -3.308722E-13 -1.985233E-12
        63  24 -6.525660E+04 -3.551385E+05 -8.407902E+04  1.575258E+05 -4.549493E-13 -4.963084E-13
        63  25 -2.276674E+05 -4.173289E+05 -1.289993E+05  3.507488E+04  3.308722E-13  2.646978E-12
        63  26 -1.643319E+05 -4.110800E+05 -1.150824E+05  4.481575E+04  3.308722E-13 -1.323489E-12
        63  27 -9.904089E+04 -3.972466E+05 -9.925749E+04  5.991242E+04 -4.549493E-13 -3.308722E-13
        64   1 -1.895669E+05 -3.681257E+05 -1.115385E+05  1.407001E+05  4.135903E-13  2.646978E-12
        64   2 -1.705610E+05 -3.724947E+05 -1.086111E+05  1.593187E+05  7.237830E-13  3.308722E-13
        64   3 -1.499618E+05 -3.694018E+05 -1.038727E+05  1.804202E+05  4.394397E-13 -1.406207E-12
        64   4 -2.309031E+05 -3.779286E+05 -1.217663E+05  8.830067E+04  3.308722E-13 -1.323489E-12
        64   5 -2.005563E+05 -3.853376E+05 -1.171788E+05  9.789650E+04  0.000000E+00  2.646978E-12
        64   6 -1.684467E+05 -3.851149E+05 -1.107123E+05  1.098377E+05  5.376674E-13 -3.639595E-12
        64   7 -3.417956E+05 -4.046749E+05 -1.492941E+05  3.280007E+04  1.323489E-12 -5.293956E-12
        64   8 -3.010328E+05 -4.154687E+05 -1.433003E+05  3.321561E+04  1.158053E-12  0.000000E+00
        64   9 -2.583505E+05 -4.184619E+05 -1.353625E+05  3.583039E+04 -1.654361E-13  0.000000E+00
        64  10 -1.895669E+05 -3.681257E+05 -1.115385E+05  1.407001E+05 -1.033976E-14  3.308722E-13
        64  11 -1.705610E+05 -3.724947E+05 -1.086111E+05  1.593187E+05  0.000000E+00 -1.654361E-13
        64  12 -1.499618E+05 -3.694018E+05 -1.038727E+05  1.804202E+05  2.584939E-15 -1.240771E-13
        64  13 -2.309031E+05 -3.779286E+05 -1.217663E+05  8.830067E+04  2.067952E-14  0.000000E+00
        64  14 -2.005563E+05 -3.853376E+05 -1.171788E+05  9.789650E+04  2.067952E-14  1.323489E-12
        64  15 -1.684467E+05 -3.851149E+05 -1.107123E+05  1.098377E+05 -5.686867E-14 -7.444626E-13
        64  16 -3.417956E+05 -4.046749E+05 -1.492941E+05  3.280007E+04  2.067952E-14 -6.617445E-13
        64  17 -3.010328E+05 -4.154687E+05 -1.433003E+05  3.321561E+04 -9.305782E-14 -8.271806E-13
        64  18 -2.583505E+05 -4.184619E+05 -1.353625E+05  3.583039E+04  2.326445E-14 -3.722313E-13
        64  19 -1.895669E+05 -3.681257E+05 -1.115385E+05  1.407001E+05 -4.963084E-13 -2.646978E-12
        64  20 -1.705610E+05 -3.724947E+05 -1.086111E+05  1.593187E+05 -6.410650E-13 -3.308722E-13
        64  21 -1.499618E+05 -3.694018E+05 -1.038727E+05  1.804202E+05 -4.394397E-13  1.406207E-12
        64  22 -2.309031E+05 -3.779286E+05 -1.217663E+05  8.830067E+04 -3.308722E-13  3.970467E-12
        64  23 -2.005563E+05 -3.853376E+05 -1.171788E+05  9.789650E+04  3.308722E-13 -2.646978E-12
        64  24 -1.684467E+05 -3.851149E+05 -1.107123E+05  1.098377E+05 -2.067952E-13 -1.654361E-12
        64  25 -3.417956E+05 -4.046749E+05 -1.492941E+05  3.280007E+04 -9.926167E-13  5.293956E-12
        64  26 -3.010328E+05 -4.154687E+05 -1.433003E+05  3.321561E+04 -4.963084E-13  0.000000E+00
        64  27 -2.583505E+05 -4.184619E+05 -1.353625E+05  3.583039E+04 -1.158053E-12 -2.646978E-12
        65   1 -1.796882E+05 -1.020096E+05 -5.633954E+04  3.069225E+04 -5.790264E-13  1.695720E-12
        65   2 -1.714487E+05 -1.068362E+05 -5.565699E+04  2.807668E+04 -7.548023E-13  1.618172E-12
        65   3 -1.631033E+05 -1.112320E+05 -5.486706E+04  2.543804E+04 -1.062410E-12  2.119650E-12
        65   4 -1.786964E+05 -9.738107E+04 -5.521550E+04  2.759982E+04 -4.135903E-13  1.323489E-12
        65   5 -1.709304E+05 -1.023721E+05 -5.466049E+04  2.549003E+04 -2.481542E-13 -1.654361E-13
        65   6 -1.630394E+05 -1.068652E+05 -5.398092E+04  2.335583E+04  1.447566E-13  1.711230E-12
        65   7 -1.774867E+05 -9.287943E+04 -5.407322E+04  2.431428E+04  0.000000E+00  1.571643E-12
        65   8 -1.702119E+05 -9.803517E+04 -5.364941E+04  2.274020E+04 -5.790264E-13  1.695720E-12
        65   9 -1.627928E+05 -1.026190E+05 -5.308236E+04  2.114252E+04 -9.512577E-13  1.985233E-12
        65  10 -1.796882E+05 -1.020096E+05 -5.633954E+04  3.069225E+04 -6.203855E-14 -2.067952E-14
        65  11 -1.714487E+05 -1.068362E+05 -5.565699E+04  2.807668E+04  6.203855E-14  0.000000E+00
        65  12 -1.631033E+05 -1.112320E+05 -5.486706E+04  2.543804E+04 -1.033976E-13  3.231174E-14
        65  13 -1.786964E+05 -9.738107E+04 -5.521550E+04  2.759982E+04  0.000000E+00 -4.135903E-14
        65  14 -1.709304E+05 -1.023721E+05 -5.466049E+04  2.549003E+04 -1.240771E-13 -4.135903E-14
        65  15 -1.630394E+05 -1.068652E+05 -5.398092E+04  2.335583E+04 -1.137373E-13 -1.550964E-14
        65  16 -1.774867E+05 -9.287943E+04 -5.407322E+04  2.431428E+04 -1.240771E-13  1.033976E-14
        65  17 -1.702119E+05 -9.803517E+04 -5.364941E+04  2.274020E+04 -4.135903E-14  5.686867E-14
        65  18 -1.627928E+05 -1.026190E+05 -5.308236E+04  2.114252E+04 -7.237830E-14 -2.972680E-14
        65  19 -1.796882E+05 -1.020096E+05 -5.633954E+04  3.069225E+04  5.790264E-13 -2.026593E-12
        65  20 -1.714487E+05 -1.068362E+05 -5.565699E+04  2.807668E+04  7.548023E-13 -1.618172E-12
        65  21 -1.631033E+05 -1.112320E+05 -5.486706E+04  2.543804E+04  4.006656E-13 -2.119650E-12
        65  22 -1.786964E+05 -9.738107E+04 -5.521550E+04  2.759982E+04  7.444626E-13 -1.158053E-12
        65  23 -1.709304E+05 -1.023721E+05 -5.466049E+04  2.549003E+04 -8.271806E-14  0.000000E+00
        65  24 -1.630394E+05 -1.068652E+05 -5.398092E+04  2.335583E+04  5.169879E-13 -1.628512E-12
        65  25 -1.774867E+05 -9.287943E+04 -5.407322E+04  2.431428E+04  0.000000E+00 -1.488925E-12
        65  26 -1.702119E+05 -9.803517E+04 -5.364941E+04  2.274020E+04  5.790264E-13 -1.530284E-12
        65  27 -1.627928E+05 -1.026190E+05 -5.308236E+04  2.114252E+04  1.282130E-12 -1.819797E-12
        66   1 -1.578497E+05 -1.133276E+05 -5.423546E+04  2.377891E+04 -1.075335E-12  2.388484E-12
        66   2 -1.499734E+05 -1.162031E+05 -5.323531E+04  2.102724E+04 -4.963084E-13  2.248897E-12
        66   3 -1.421168E+05 -1.189104E+05 -5.220545E+04  1.835399E+04 -9.771071E-13  2.561675E-12
        66   4 -1.584797E+05 -1.090483E+05 -5.350560E+04  2.210999E+04 -9.926167E-13  1.861156E-12
        66   5 -1.512515E+05 -1.122918E+05 -5.270866E+04  1.996115E+04 -4.135903E-13 -2.067952E-14
        66   6 -1.439879E+05 -1.152108E+05 -5.183974E+04  1.785679E+04 -9.305782E-13  1.938705E-12
        66   7 -1.586573E+05 -1.050930E+05 -5.275006E+04  2.013693E+04 -3.308722E-13  2.067952E-12
        66   8 -1.521544E+05 -1.087097E+05 -5.217282E+04  1.867000E+04 -1.158053E-12  1.902515E-12
        66   9 -1.455520E+05 -1.118144E+05 -5.147327E+04  1.720883E+04 -7.444626E-13  2.326445E-12
        66  10 -1.578497E+05 -1.133276E+05 -5.423546E+04  2.377891E+04  4.135903E-14  0.000000E+00
        66  11 -1.499734E+05 -1.162031E+05 -5.323531E+04  2.102724E+04  6.203855E-14 -3.101927E-14
        66  12 -1.421168E+05 -1.189104E+05 -5.220545E+04  1.835399E+04  3.618915E-14  3.618915E-14
        66  13 -1.584797E+05 -1.090483E+05 -5.350560E+04  2.210999E+04 -1.654361E-13  4.135903E-14
        66  14 -1.512515E+05 -1.122918E+05 -5.270866E+04  1.996115E+04 -2.481542E-13  6.203855E-14
        66  15 -1.439879E+05 -1.152108E+05 -5.183974E+04  1.785679E+04 -9.305782E-14 -1.033976E-14
        66  16 -1.586573E+05 -1.050930E+05 -5.275006E+04  2.013693E+04 -4.135903E-14  2.067952E-14
        66  17 -1.521544E+05 -1.087097E+05 -5.217282E+04  1.867000E+04  2.067952E-13  1.033976E-14
        66  18 -1.455520E+05 -1.118144E+05 -5.147327E+04  1.720883E+04 -2.067952E-14 -7.754818E-15
        66  19 -1.578497E+05 -1.133276E+05 -5.423546E+04  2.377891E+04  1.737079E-12 -2.223048E-12
        66  20 -1.499734E+05 -1.162031E+05 -5.323531E+04  2.102724E+04  1.158053E-12 -1.918025E-12
        66  21 -1.421168E+05 -1.189104E+05 -5.220545E+04  1.835399E+04  9.771071E-13 -2.561675E-12
        66  22 -1.584797E+05 -1.090483E+05 -5.350560E+04  2.210999E+04  9.926167E-13 -1.695720E-12
        66  23 -1.512515E+05 -1.122918E+05 -5.270866E+04  1.996115E+04  4.135903E-13 -1.447566E-13
        66  24 -1.439879E+05 -1.152108E+05 -5.183974E+04  1.785679E+04  9.305782E-13 -1.938705E-12
        66  25 -1.586573E+05 -1.050930E+05 -5.275006E+04  2.013693E+04  3.308722E-13 -2.067952E-12
        66  26 -1.521544E+05 -1.087097E+05 -5.217282E+04  1.867000E+04  4.963084E-13 -1.985233E-12
        66  27 -1.455520E+05 -1.118144E+05 -5.147327E+04  1.720883E+04  7.444626E-13 -2.326445E-12
        67   1 -1.588119E+05 -1.029482E+05 -5.235203E+04  1.912459E+04 -1.240771E-12  2.078291E-12
        67   2 -1.524879E+05 -1.062860E+05 -5.175477E+04  1.783495E+04 -8.788794E-13  1.837892E-12
        67   3 -1.462073E+05 -1.096127E+05 -5.116400E+04  1.662419E+04 -1.106354E-12  2.182981E-12
        67   4 -1.588683E+05 -9.907227E+04 -5.158810E+04  1.731847E+04 -3.308722E-13  1.613002E-12
        67   5 -1.529957E+05 -1.025937E+05 -5.111787E+04  1.639706E+04 -2.481542E-13  1.240771E-13
        67   6 -1.471424E+05 -1.060366E+05 -5.063580E+04  1.552928E+04 -1.096014E-12  1.843062E-12
        67   7 -1.582689E+05 -9.546691E+04 -5.074717E+04  1.527719E+04 -8.271806E-13  1.695720E-12
        67   8 -1.529361E+05 -9.919127E+04 -5.042548E+04  1.476974E+04 -1.075335E-12  1.530284E-12
        67   9 -1.475916E+05 -1.027574E+05 -5.006980E+04  1.428486E+04 -3.308722E-13  2.140330E-12
        67  10 -1.588119E+05 -1.029482E+05 -5.235203E+04  1.912459E+04  0.000000E+00  1.033976E-14
        67  11 -1.524879E+05 -1.062860E+05 -5.175477E+04  1.783495E+04  6.203855E-14  1.550964E-14
        67  12 -1.462073E+05 -1.096127E+05 -5.116400E+04  1.662419E+04 -4.652891E-14 -6.462349E-15
        67  13 -1.588683E+05 -9.907227E+04 -5.158810E+04  1.731847E+04  0.000000E+00  2.067952E-14
        67  14 -1.529957E+05 -1.025937E+05 -5.111787E+04  1.639706E+04  1.654361E-13 -1.033976E-14
        67  15 -1.471424E+05 -1.060366E+05 -5.063580E+04  1.552928E+04  8.271806E-14 -2.843433E-14
        67  16 -1.582689E+05 -9.546691E+04 -5.074717E+04  1.527719E+04  8.271806E-14  0.000000E+00
        67  17 -1.529361E+05 -9.919127E+04 -5.042548E+04  1.476974E+04 -4.135903E-14 -1.033976E-14
        67  18 -1.475916E+05 -1.027574E+05 -5.006980E+04  1.428486E+04 -2.067952E-14  1.550964E-14
        67  19 -1.588119E+05 -1.029482E+05 -5.235203E+04  1.912459E+04  1.240771E-12 -2.078291E-12
        67  20 -1.524879E+05 -1.062860E+05 -5.175477E+04  1.783495E+04  1.209752E-12 -1.920610E-12
        67  21 -1.462073E+05 -1.096127E+05 -5.116400E+04  1.662419E+04  1.106354E-12 -2.182981E-12
        67  22 -1.588683E+05 -9.907227E+04 -5.158810E+04  1.731847E+04  3.308722E-13 -1.613002E-12
        67  23 -1.529957E+05 -1.025937E+05 -5.111787E+04  1.639706E+04 -4.135903E-13 -1.240771E-13
        67  24 -1.471424E+05 -1.060366E+05 -5.063580E+04  1.552928E+04  7.651421E-13 -1.925780E-12
        67  25 -1.582689E+05 -9.546691E+04 -5.074717E+04  1.527719E+04  4.963084E-13 -1.695720E-12
        67  26 -1.529361E+05 -9.919127E+04 -5.042548E+04  1.476974E+04  1.075335E-12 -1.654361E-12
        67  27 -1.475916E+05 -1.027574E+05 -5.006980E+04  1.428486E+04  9.926167E-13 -2.057612E-12
        68   1 -1.768188E+05 -9.072552E+04 -5.350886E+04  2.266370E+04 -3.722313E-13  1.256281E-12
        68   2 -1.697638E+05 -9.566767E+04 -5.308630E+04  2.132005E+04 -1.085675E-12  1.331244E-12
        68   3 -1.626783E+05 -1.004611E+05 -5.262788E+04  2.001075E+04 -9.952017E-13  1.700890E-12
        68   4 -1.754557E+05 -8.731821E+04 -5.255479E+04  1.998573E+04 -4.963084E-13  1.158053E-12
        68   5 -1.689029E+05 -9.213469E+04 -5.220751E+04  1.893855E+04  1.240771E-13 -2.067952E-14
        68   6 -1.622971E+05 -9.672936E+04 -5.180529E+04  1.789590E+04 -6.927638E-13  1.470831E-12
        68   7 -1.735941E+05 -8.396575E+04 -5.151197E+04  1.714569E+04 -4.963084E-13  1.323489E-12
        68   8 -1.676479E+05 -8.867714E+04 -5.126501E+04  1.643391E+04 -6.617445E-13  1.261450E-12
        68   9 -1.616198E+05 -9.308109E+04 -5.094019E+04  1.569083E+04 -9.305782E-13  1.680211E-12
        68  10 -1.768188E+05 -9.072552E+04 -5.350886E+04  2.266370E+04 -2.067952E-14  0.000000E+00
        68  11 -1.697638E+05 -9.566767E+04 -5.308630E+04  2.132005E+04  1.033976E-14 -3.618915E-14
        68  12 -1.626783E+05 -1.004611E+05 -5.262788E+04  2.001075E+04 -6.203855E-14 -6.462349E-15
        68  13 -1.754557E+05 -8.731821E+04 -5.255479E+04  1.998573E+04  0.000000E+00 -2.067952E-14
        68  14 -1.689029E+05 -9.213469E+04 -5.220751E+04  1.893855E+04  1.240771E-13 -3.101927E-14
        68  15 -1.622971E+05 -9.672936E+04 -5.180529E+04  1.789590E+04  6.203855E-14  2.584939E-15
        68  16 -1.735941E+05 -8.396575E+04 -5.151197E+04  1.714569E+04  2.067952E-14  5.169879E-15
        68  17 -1.676479E+05 -8.867714E+04 -5.126501E+04  1.643391E+04  1.033976E-13 -1.809458E-14
        68  18 -1.616198E+05 -9.308109E+04 -5.094019E+04  1.569083E+04 -3.360421E-14 -3.231174E-15
        68  19 -1.768188E+05 -9.072552E+04 -5.350886E+04  2.266370E+04  5.376674E-13 -1.338999E-12
        68  20 -1.697638E+05 -9.566767E+04 -5.308630E+04  2.132005E+04  4.239301E-13 -1.496680E-12
        68  21 -1.626783E+05 -1.004611E+05 -5.262788E+04  2.001075E+04  1.326074E-12 -1.700890E-12
        68  22 -1.754557E+05 -8.731821E+04 -5.255479E+04  1.998573E+04  1.654361E-13 -1.158053E-12
        68  23 -1.689029E+05 -9.213469E+04 -5.220751E+04  1.893855E+04 -1.240771E-13  2.067952E-14
        68  24 -1.622971E+05 -9.672936E+04 -5.180529E+04  1.789590E+04  3.618915E-13 -1.470831E-12
        68  25 -1.735941E+05 -8.396575E+04 -5.151197E+04  1.714569E+04  4.963084E-13 -1.323489E-12
        68  26 -1.676479E+05 -8.867714E+04 -5.126501E+04  1.643391E+04  4.963084E-13 -1.302809E-12
        68  27 -1.616198E+05 -9.308109E+04 -5.094019E+04  1.569083E+04  9.305782E-13 -1.638852E-12
        69   1 -6.161703E+05 -1.550199E+05 -1.542381E+05  1.672616E+05 -1.654361E-13  4.135903E-14
        69   2 -5.981035E+05 -1.558044E+05 -1.507816E+05  1.687985E+05 -8.271806E-14  5.790264E-13
        69   3 -5.811607E+05 -1.606423E+05 -1.483606E+05  1.710264E+05  1.488925E-12  0.000000E+00
        69   4 -6.407255E+05 -1.604563E+05 -1.602363E+05  1.663597E+05 -1.654361E-13  8.271806E-14
        69   5 -6.216736E+05 -1.587657E+05 -1.560879E+05  1.677489E+05  0.000000E+00  6.617445E-13
        69   6 -6.043164E+05 -1.617198E+05 -1.532073E+05  1.703748E+05  3.970467E-12 -1.323489E-12
        69   7 -6.613072E+05 -1.648384E+05 -1.652291E+05  1.666239E+05 -3.308722E-13  0.000000E+00
        69   8 -6.395844E+05 -1.600484E+05 -1.599266E+05  1.679018E+05  6.617445E-13  0.000000E+00
        69   9 -6.198005E+05 -1.604636E+05 -1.560528E+05  1.711019E+05  0.000000E+00  0.000000E+00
        69  10 -6.161703E+05 -1.550199E+05 -1.542381E+05  1.672616E+05 -3.101927E-14  0.000000E+00
        69  11 -5.981035E+05 -1.558044E+05 -1.507816E+05  1.687985E+05 -3.308722E-13 -2.481542E-13
        69  12 -5.811607E+05 -1.606423E+05 -1.483606E+05  1.710264E+05  1.344168E-13 -8.271806E-14
        69  13 -6.407255E+05 -1.604563E+05 -1.602363E+05  1.663597E+05 -8.271806E-14  0.000000E+00
        69  14 -6.216736E+05 -1.587657E+05 -1.560879E+05  1.677489E+05 -1.654361E-13  8.271806E-14
        69  15 -6.043164E+05 -1.617198E+05 -1.532073E+05  1.703748E+05 -1.654361E-13 -2.067952E-13
        69  16 -6.613072E+05 -1.648384E+05 -1.652291E+05  1.666239E+05 -8.271806E-14 -8.271806E-14
        69  17 -6.395844E+05 -1.600484E+05 -1.599266E+05  1.679018E+05  0.000000E+00  1.654361E-13
        69  18 -6.198005E+05 -1.604636E+05 -1.560528E+05  1.711019E+05  1.654361E-13  0.000000E+00
        69  19 -6.161703E+05 -1.550199E+05 -1.542381E+05  1.672616E+05  0.000000E+00 -2.067952E-13
        69  20 -5.981035E+05 -1.558044E+05 -1.507816E+05  1.687985E+05  8.271806E-14  8.271806E-14
        69  21 -5.811607E+05 -1.606423E+05 -1.483606E+05  1.710264E+05 -1.488925E-12  0.000000E+00
        69  22 -6.407255E+05 -1.604563E+05 -1.602363E+05  1.663597E+05  1.654361E-13 -8.271806E-14
        69  23 -6.216736E+05 -1.587657E+05 -1.560879E+05  1.677489E+05  0.000000E+00  0.000000E+00
        69  24 -6.043164E+05 -1.617198E+05 -1.532073E+05  1.703748E+05 -3.970467E-12  1.323489E-12
        69  25 -6.613072E+05 -1.648384E+05 -1.652291E+05  1.666239E+05 -1.654361E-13  1.654361E-13
        69  26 -6.395844E+05 -1.600484E+05 -1.599266E+05  1.679018E+05  6.617445E-13  0.000000E+00
        69  27 -6.198005E+05 -1.604636E+05 -1.560528E+05  1.711019E+05 -1.323489E-12  0.000000E+00
        70   1 -5.710004E+05 -1.653837E+05 -1.472768E+05  1.714911E+05 -3.474159E-12 -8.271806E-13
        70   2 -5.574580E+05 -1.745036E+05 -1.463923E+05  1.719202E+05  1.571643E-12  8.271806E-14
        70   3 -5.446965E+05 -1.854297E+05 -1.460252E+05  1.729641E+05  3.163966E-12 -1.178732E-12
        70   4 -5.913155E+05 -1.651977E+05 -1.513026E+05  1.714694E+05  6.617445E-13 -6.617445E-13
        70   5 -5.759555E+05 -1.734713E+05 -1.498854E+05  1.721521E+05 -1.985233E-12  1.323489E-12
        70   6 -5.613437E+05 -1.835237E+05 -1.489735E+05  1.735258E+05 -3.308722E-12 -1.985233E-12
        70   7 -6.095198E+05 -1.642753E+05 -1.547590E+05  1.719631E+05  2.646978E-12  0.000000E+00
        70   8 -5.920350E+05 -1.715647E+05 -1.527199E+05  1.730017E+05  5.955700E-12 -3.970467E-12
        70   9 -5.751842E+05 -1.805674E+05 -1.511503E+05  1.748422E+05 -2.812414E-12 -2.316106E-12
        70  10 -5.710004E+05 -1.653837E+05 -1.472768E+05  1.714911E+05  3.308722E-13  3.308722E-13
        70  11 -5.574580E+05 -1.745036E+05 -1.463923E+05  1.719202E+05 -1.654361E-13  0.000000E+00
        70  12 -5.446965E+05 -1.854297E+05 -1.460252E+05  1.729641E+05 -5.376674E-13  4.549493E-13
        70  13 -5.913155E+05 -1.651977E+05 -1.513026E+05  1.714694E+05  0.000000E+00 -3.308722E-13
        70  14 -5.759555E+05 -1.734713E+05 -1.498854E+05  1.721521E+05  9.926167E-13  1.654361E-13
        70  15 -5.613437E+05 -1.835237E+05 -1.489735E+05  1.735258E+05  6.617445E-13  1.654361E-13
        70  16 -6.095198E+05 -1.642753E+05 -1.547590E+05  1.719631E+05  0.000000E+00  0.000000E+00
        70  17 -5.920350E+05 -1.715647E+05 -1.527199E+05  1.730017E+05  0.000000E+00 -9.098987E-13
        70  18 -5.751842E+05 -1.805674E+05 -1.511503E+05  1.748422E+05  8.271806E-14 -4.963084E-13
        70  19 -5.710004E+05 -1.653837E+05 -1.472768E+05  1.714911E+05 -1.819797E-12 -4.963084E-13
        70  20 -5.574580E+05 -1.745036E+05 -1.463923E+05  1.719202E+05 -4.218621E-12 -2.729696E-12
        70  21 -5.446965E+05 -1.854297E+05 -1.460252E+05  1.729641E+05 -3.163966E-12  1.178732E-12
        70  22 -5.913155E+05 -1.651977E+05 -1.513026E+05  1.714694E+05 -6.617445E-13  4.632211E-12
        70  23 -5.759555E+05 -1.734713E+05 -1.498854E+05  1.721521E+05  1.985233E-12  1.323489E-12
        70  24 -5.613437E+05 -1.835237E+05 -1.489735E+05  1.735258E+05  6.617445E-13  1.985233E-12
        70  25 -6.095198E+05 -1.642753E+05 -1.547590E+05  1.719631E+05  2.646978E-12  0.000000E+00
        70  26 -5.920350E+05 -1.715647E+05 -1.527199E+05  1.730017E+05 -6.617445E-13  1.323489E-12
        70  27 -5.751842E+05 -1.805674E+05 -1.511503E+05  1.748422E+05  2.812414E-12  2.316106E-12
        71   1 -6.166041E+05 -1.650528E+05 -1.563314E+05  1.710322E+05  9.926167E-13 -5.790264E-13
        71   2 -5.982588E+05 -1.711056E+05 -1.538729E+05  1.733173E+05  4.963084E-12  5.045802E-12
        71   3 -5.806502E+05 -1.803204E+05 -1.521941E+05  1.752273E+05 -2.750376E-12  1.550964E-12
        71   4 -6.222164E+05 -1.667220E+05 -1.577877E+05  1.719908E+05  3.970467E-12 -6.617445E-13
        71   5 -6.034523E+05 -1.740137E+05 -1.554932E+05  1.746777E+05 -1.323489E-12 -1.323489E-12
        71   6 -5.855597E+05 -1.846500E+05 -1.540419E+05  1.770143E+05  1.406207E-12 -7.444626E-12
        71   7 -6.241933E+05 -1.675223E+05 -1.583431E+05  1.727823E+05 -2.646978E-12  1.323489E-12
        71   8 -6.047154E+05 -1.759483E+05 -1.561327E+05  1.757502E+05 -3.308722E-12 -1.985233E-12
        71   9 -5.861687E+05 -1.878597E+05 -1.548057E+05  1.783653E+05  1.323489E-12  1.654361E-13
        71  10 -6.166041E+05 -1.650528E+05 -1.563314E+05  1.710322E+05  0.000000E+00  0.000000E+00
        71  11 -5.982588E+05 -1.711056E+05 -1.538729E+05  1.733173E+05 -1.075335E-12  5.790264E-13
        71  12 -5.806502E+05 -1.803204E+05 -1.521941E+05  1.752273E+05  3.929108E-13  1.654361E-13
        71  13 -6.222164E+05 -1.667220E+05 -1.577877E+05  1.719908E+05  0.000000E+00 -3.308722E-13
        71  14 -6.034523E+05 -1.740137E+05 -1.554932E+05  1.746777E+05 -3.308722E-13  3.308722E-13
        71  15 -5.855597E+05 -1.846500E+05 -1.540419E+05  1.770143E+05 -1.075335E-12 -1.240771E-13
        71  16 -6.241933E+05 -1.675223E+05 -1.583431E+05  1.727823E+05  0.000000E+00  0.000000E+00
        71  17 -6.047154E+05 -1.759483E+05 -1.561327E+05  1.757502E+05  8.271806E-13 -1.654361E-13
        71  18 -5.861687E+05 -1.878597E+05 -1.548057E+05  1.783653E+05 -2.067952E-14 -6.410650E-13
        71  19 -6.166041E+05 -1.650528E+05 -1.563314E+05  1.710322E+05  3.308722E-13  5.790264E-13
        71  20 -5.982588E+05 -1.711056E+05 -1.538729E+05  1.733173E+05 -2.316106E-12  2.895132E-12
        71  21 -5.806502E+05 -1.803204E+05 -1.521941E+05  1.752273E+05  1.033976E-13  1.096014E-12
        71  22 -6.222164E+05 -1.667220E+05 -1.577877E+05  1.719908E+05 -2.646978E-12  1.985233E-12
        71  23 -6.034523E+05 -1.740137E+05 -1.554932E+05  1.746777E+05 -1.323489E-12  0.000000E+00
        71  24 -5.855597E+05 -1.846500E+05 -1.540419E+05  1.770143E+05 -6.700163E-12 -4.963084E-13
        71  25 -6.241933E+05 -1.675223E+05 -1.583431E+05  1.727823E+05  1.323489E-12 -2.646978E-12
        71  26 -6.047154E+05 -1.759483E+05 -1.561327E+05  1.757502E+05  6.617445E-13  6.617445E-13
        71  27 -5.861687E+05 -1.878597E+05 -1.548057E+05  1.783653E+05 -1.323489E-12 -1.654361E-13
        72   1 -6.693129E+05 -1.664409E+05 -1.671507E+05  1.680502E+05  5.169879E-13 -2.378144E-13
        72   2 -6.473421E+05 -1.608910E+05 -1.616466E+05  1.697875E+05  5.790264E-13 -9.098987E-13
        72   3 -6.267819E+05 -1.616439E+05 -1.576852E+05  1.708979E+05  1.985233E-12  5.790264E-13
        72   4 -6.752472E+05 -1.678191E+05 -1.686133E+05  1.698392E+05  4.963084E-13  1.654361E-13
        72   5 -6.549408E+05 -1.624863E+05 -1.634854E+05  1.707467E+05  1.323489E-12 -3.308722E-13
        72   6 -6.363751E+05 -1.639167E+05 -1.600584E+05  1.711269E+05  6.617445E-13  6.617445E-13
        72   7 -6.752241E+05 -1.677039E+05 -1.685856E+05  1.718918E+05  3.308722E-13  0.000000E+00
        72   8 -6.553235E+05 -1.622688E+05 -1.635185E+05  1.719024E+05  6.617445E-13  6.617445E-13
        72   9 -6.371837E+05 -1.640089E+05 -1.602385E+05  1.714753E+05 -2.646978E-12 -6.617445E-13
        72  10 -6.693129E+05 -1.664409E+05 -1.671507E+05  1.680502E+05  0.000000E+00  1.033976E-14
        72  11 -6.473421E+05 -1.608910E+05 -1.616466E+05  1.697875E+05  8.271806E-14  1.240771E-13
        72  12 -6.267819E+05 -1.616439E+05 -1.576852E+05  1.708979E+05 -2.067952E-14 -7.237830E-14
        72  13 -6.752472E+05 -1.678191E+05 -1.686133E+05  1.698392E+05  4.135903E-14  8.271806E-14
        72  14 -6.549408E+05 -1.624863E+05 -1.634854E+05  1.707467E+05 -1.654361E-13  8.271806E-14
        72  15 -6.363751E+05 -1.639167E+05 -1.600584E+05  1.711269E+05  2.067952E-13 -8.271806E-14
        72  16 -6.752241E+05 -1.677039E+05 -1.685856E+05  1.718918E+05  8.271806E-14 -8.271806E-14
        72  17 -6.553235E+05 -1.622688E+05 -1.635185E+05  1.719024E+05  0.000000E+00  1.654361E-13
        72  18 -6.371837E+05 -1.640089E+05 -1.602385E+05  1.714753E+05 -8.271806E-14  0.000000E+00
        72  19 -6.693129E+05 -1.664409E+05 -1.671507E+05  1.680502E+05 -5.169879E-13  2.378144E-13
        72  20 -6.473421E+05 -1.608910E+05 -1.616466E+05  1.697875E+05  8.271806E-14  2.481542E-13
        72  21 -6.267819E+05 -1.616439E+05 -1.576852E+05  1.708979E+05 -1.985233E-12 -5.790264E-13
        72  22 -6.752472E+05 -1.678191E+05 -1.686133E+05  1.698392E+05 -1.654361E-13  0.000000E+00
        72  23 -6.549408E+05 -1.624863E+05 -1.634854E+05  1.707467E+05 -6.617445E-13 -3.308722E-13
        72  24 -6.363751E+05 -1.639167E+05 -1.600584E+05  1.711269E+05  1.985233E-12 -1.985233E-12
        72  25 -6.752241E+05 -1.677039E+05 -1.685856E+05  1.718918E+05 -1.654361E-13  0.000000E+00
        72  26 -6.553235E+05 -1.622688E+05 -1.635185E+05  1.719024E+05 -1.323489E-12  0.000000E+00
        72  27 -6.371837E+05 -1.640089E+05 -1.602385E+05  1.714753E+05  1.323489E-12 -6.617445E-13
        73   1 -4.749460E+05 -2.814833E+05 -1.512859E+05  2.079984E+05 -2.316106E-11 -5.293956E-12
        73   2 -4.848405E+05 -2.808568E+05 -1.531395E+05  2.124990E+05 -6.617445E-13 -1.985233E-12
        73   3 -4.950241E+05 -2.807498E+05 -1.551548E+05  2.167799E+05  1.133237E-11 -9.098987E-13
        73   4 -4.661578E+05 -2.769572E+05 -1.486230E+05  1.981650E+05  7.940934E-12 -7.940934E-12
        73   5 -4.772775E+05 -2.750126E+05 -1.504580E+05  2.025414E+05 -2.646978E-12 -1.323489E-12
        73   6 -4.886825E+05 -2.735426E+05 -1.524450E+05  2.067068E+05 -7.940934E-12 -1.687448E-11
        73   7 -4.589048E+05 -2.737179E+05 -1.465245E+05  1.891694E+05  1.058791E-11 -1.588187E-11
        73   8 -4.712513E+05 -2.705014E+05 -1.483505E+05  1.934390E+05  1.323489E-11 -2.646978E-12
        73   9 -4.838795E+05 -2.677166E+05 -1.503192E+05  1.975065E+05  1.522012E-11  7.279189E-12
        73  10 -4.749460E+05 -2.814833E+05 -1.512859E+05  2.079984E+05  6.617445E-13  6.617445E-13
        73  11 -4.848405E+05 -2.808568E+05 -1.531395E+05  2.124990E+05  0.000000E+00  3.308722E-12
        73  12 -4.950241E+05 -2.807498E+05 -1.551548E+05  2.167799E+05 -2.481542E-13  2.481542E-13
        73  13 -4.661578E+05 -2.769572E+05 -1.486230E+05  1.981650E+05  2.646978E-12  0.000000E+00
        73  14 -4.772775E+05 -2.750126E+05 -1.504580E+05  2.025414E+05  1.323489E-12  1.323489E-12
        73  15 -4.886825E+05 -2.735426E+05 -1.524450E+05  2.067068E+05  6.617445E-13  1.654361E-12
        73  16 -4.589048E+05 -2.737179E+05 -1.465245E+05  1.891694E+05  6.617445E-13  6.617445E-13
        73  17 -4.712513E+05 -2.705014E+05 -1.483505E+05  1.934390E+05 -1.985233E-12  1.654361E-12
        73  18 -4.838795E+05 -2.677166E+05 -1.503192E+05  1.975065E+05 -6.617445E-13  5.790264E-13
        73  19 -4.749460E+05 -2.814833E+05 -1.512859E+05  2.079984E+05 -3.308722E-12 -1.058791E-11
        73  20 -4.848405E+05 -2.808568E+05 -1.531395E+05  2.124990E+05  6.617445E-13  1.985233E-12
        73  21 -4.950241E+05 -2.807498E+05 -1.551548E+05  2.167799E+05 -1.133237E-11  9.098987E-13
        73  22 -4.661578E+05 -2.769572E+05 -1.486230E+05  1.981650E+05 -7.940934E-12 -7.940934E-12
        73  23 -4.772775E+05 -2.750126E+05 -1.504580E+05  2.025414E+05  2.646978E-12  1.191140E-11
        73  24 -4.886825E+05 -2.735426E+05 -1.524450E+05  2.067068E+05 -2.646978E-12  9.926167E-13
        73  25 -4.589048E+05 -2.737179E+05 -1.465245E+05  1.891694E+05 -5.293956E-12  5.293956E-12
        73  26 -4.712513E+05 -2.705014E+05 -1.483505E+05  1.934390E+05 -1.852885E-11  2.646978E-12
        73  27 -4.838795E+05 -2.677166E+05 -1.503192E+05  1.975065E+05 -9.926167E-12  3.308722E-12
        74   1 -5.004914E+05 -2.799784E+05 -1.560940E+05  2.187790E+05 -2.646978E-12 -3.308722E-12
        74   2 -5.082141E+05 -2.778104E+05 -1.572049E+05  2.212836E+05  1.389663E-11 -9.926167E-13
        74   3 -5.163359E+05 -2.759275E+05 -1.584527E+05  2.235620E+05  1.447566E-11  2.729696E-12
        74   4 -4.948642E+05 -2.719703E+05 -1.533669E+05  2.085790E+05  7.940934E-12  2.646978E-12
        74   5 -5.042311E+05 -2.686044E+05 -1.545671E+05  2.109379E+05  0.000000E+00  0.000000E+00
        74   6 -5.139852E+05 -2.654936E+05 -1.558958E+05  2.130823E+05  1.389663E-11 -2.646978E-12
        74   7 -4.910133E+05 -2.654298E+05 -1.512886E+05  1.993467E+05  1.588187E-11 -5.293956E-12
        74   8 -5.020060E+05 -2.609011E+05 -1.525814E+05  2.015698E+05  5.293956E-12 -7.940934E-12
        74   9 -5.133742E+05 -2.565986E+05 -1.539946E+05  2.035897E+05  1.323489E-12 -8.602678E-12
        74  10 -5.004914E+05 -2.799784E+05 -1.560940E+05  2.187790E+05  0.000000E+00  6.617445E-13
        74  11 -5.082141E+05 -2.778104E+05 -1.572049E+05  2.212836E+05 -3.308722E-12  9.926167E-13
        74  12 -5.163359E+05 -2.759275E+05 -1.584527E+05  2.235620E+05 -1.654361E-13 -7.444626E-13
        74  13 -4.948642E+05 -2.719703E+05 -1.533669E+05  2.085790E+05  0.000000E+00  0.000000E+00
        74  14 -5.042311E+05 -2.686044E+05 -1.545671E+05  2.109379E+05  2.646978E-12 -2.646978E-12
        74  15 -5.139852E+05 -2.654936E+05 -1.558958E+05  2.130823E+05 -8.271806E-13 -8.271806E-13
        74  16 -4.910133E+05 -2.654298E+05 -1.512886E+05  1.993467E+05  6.617445E-13 -1.985233E-12
        74  17 -5.020060E+05 -2.609011E+05 -1.525814E+05  2.015698E+05 -6.617445E-13  6.617445E-13
        74  18 -5.133742E+05 -2.565986E+05 -1.539946E+05  2.035897E+05  1.158053E-12 -1.075335E-12
        74  19 -5.004914E+05 -2.799784E+05 -1.560940E+05  2.187790E+05 -7.940934E-12 -1.985233E-12
        74  20 -5.082141E+05 -2.778104E+05 -1.572049E+05  2.212836E+05  1.985233E-12 -4.301339E-12
        74  21 -5.163359E+05 -2.759275E+05 -1.584527E+05  2.235620E+05 -3.887749E-12 -8.023652E-12
        74  22 -4.948642E+05 -2.719703E+05 -1.533669E+05  2.085790E+05 -7.940934E-12 -2.646978E-12
        74  23 -5.042311E+05 -2.686044E+05 -1.545671E+05  2.109379E+05  0.000000E+00  5.293956E-12
        74  24 -5.139852E+05 -2.654936E+05 -1.558958E+05  2.130823E+05 -8.602678E-12  2.646978E-12
        74  25 -4.910133E+05 -2.654298E+05 -1.512886E+05  1.993467E+05 -5.293956E-12 -5.293956E-12
        74  26 -5.020060E+05 -2.609011E+05 -1.525814E+05  2.015698E+05  0.000000E+00  7.940934E-12
        74  27 -5.133742E+05 -2.565986E+05 -1.539946E+05  2.035897E+05 -6.617445E-12 -1.985233E-12
        75   1 -4.890354E+05 -2.612620E+05 -1.500595E+05  1.948219E+05 -5.293956E-12  4.632211E-12
        75   2 -5.007589E+05 -2.560457E+05 -1.513609E+05  1.971119E+05 -1.323489E-12 -1.224227E-11
        75   3 -5.130141E+05 -2.511786E+05 -1.528385E+05  1.991104E+05 -1.141509E-11  8.768114E-12
        75   4 -4.855491E+05 -2.538628E+05 -1.478824E+05  1.883312E+05 -1.058791E-11 -7.940934E-12
        75   5 -4.988495E+05 -2.478534E+05 -1.493406E+05  1.906215E+05  1.323489E-12  6.617445E-12
        75   6 -5.126689E+05 -2.421447E+05 -1.509627E+05  1.926389E+05  1.224227E-11  9.926167E-13
        75   7 -4.832897E+05 -2.474448E+05 -1.461469E+05  1.825014E+05  5.293956E-12 -1.058791E-11
        75   8 -4.981524E+05 -2.406854E+05 -1.477675E+05  1.848052E+05  5.293956E-12 -2.646978E-12
        75   9 -5.135211E+05 -2.341810E+05 -1.495404E+05  1.868547E+05  1.323489E-11  0.000000E+00
        75  10 -4.890354E+05 -2.612620E+05 -1.500595E+05  1.948219E+05 -6.617445E-13  0.000000E+00
        75  11 -5.007589E+05 -2.560457E+05 -1.513609E+05  1.971119E+05  1.985233E-12 -6.617445E-13
        75  12 -5.130141E+05 -2.511786E+05 -1.528385E+05  1.991104E+05 -3.308722E-13  2.233388E-12
        75  13 -4.855491E+05 -2.538628E+05 -1.478824E+05  1.883312E+05 -1.323489E-12  0.000000E+00
        75  14 -4.988495E+05 -2.478534E+05 -1.493406E+05  1.906215E+05  6.617445E-13 -6.617445E-13
        75  15 -5.126689E+05 -2.421447E+05 -1.509627E+05  1.926389E+05  1.819797E-12 -1.158053E-12
        75  16 -4.832897E+05 -2.474448E+05 -1.461469E+05  1.825014E+05  0.000000E+00  0.000000E+00
        75  17 -4.981524E+05 -2.406854E+05 -1.477675E+05  1.848052E+05  0.000000E+00  1.985233E-12
        75  18 -5.135211E+05 -2.341810E+05 -1.495404E+05  1.868547E+05  3.308722E-13  1.240771E-12
        75  19 -4.890354E+05 -2.612620E+05 -1.500595E+05  1.948219E+05  0.000000E+00 -2.051408E-11
        75  20 -5.007589E+05 -2.560457E+05 -1.513609E+05  1.971119E+05  1.323489E-12  1.654361E-12
        75  21 -5.130141E+05 -2.511786E+05 -1.528385E+05  1.991104E+05  6.121137E-12  1.819797E-12
        75  22 -4.855491E+05 -2.538628E+05 -1.478824E+05  1.883312E+05  5.293956E-12  2.646978E-12
        75  23 -4.988495E+05 -2.478534E+05 -1.493406E+05  1.906215E+05 -1.323489E-12 -1.323489E-12
        75  24 -5.126689E+05 -2.421447E+05 -1.509627E+05  1.926389E+05 -1.654361E-12 -9.926167E-13
        75  25 -4.832897E+05 -2.474448E+05 -1.461469E+05  1.825014E+05 -5.293956E-12  5.293956E-12
        75  26 -4.981524E+05 -2.406854E+05 -1.477675E+05  1.848052E+05 -5.293956E-12 -2.646978E-12
        75  27 -5.135211E+05 -2.341810E+05 -1.495404E+05  1.868547E+05 -7.940934E-12 -5.293956E-12
        76   1 -4.550030E+05 -2.711908E+05 -1.452388E+05  1.846996E+05 -3.970467E-12  9.926167E-12
        76   2 -4.679110E+05 -2.672925E+05 -1.470407E+05  1.890213E+05 -1.323489E-12 -2.183757E-11
        76   3 -4.814119E+05 -2.639086E+05 -1.490641E+05  1.929925E+05  2.067952E-12 -1.406207E-12
        76   4 -4.484816E+05 -2.666998E+05 -1.430363E+05  1.780535E+05  1.852885E-11  7.940934E-12
        76   5 -4.625788E+05 -2.616549E+05 -1.448467E+05  1.824498E+05  3.970467E-12  2.646978E-12
        76   6 -4.772448E+05 -2.570937E+05 -1.468677E+05  1.865126E+05 -3.308722E-13 -6.617445E-13
        76   7 -4.429998E+05 -2.632119E+05 -1.412423E+05  1.720216E+05  5.293956E-12 -5.293956E-12
        76   8 -4.582647E+05 -2.570465E+05 -1.430622E+05  1.764945E+05  5.293956E-12 -7.940934E-12
        76   9 -4.740749E+05 -2.513349E+05 -1.450820E+05  1.806502E+05  3.970467E-12  1.323489E-12
        76  10 -4.550030E+05 -2.711908E+05 -1.452388E+05  1.846996E+05  6.617445E-13 -6.617445E-13
        76  11 -4.679110E+05 -2.672925E+05 -1.470407E+05  1.890213E+05 -1.323489E-12 -3.308722E-13
        76  12 -4.814119E+05 -2.639086E+05 -1.490641E+05  1.929925E+05  4.963084E-13 -8.271806E-14
        76  13 -4.484816E+05 -2.666998E+05 -1.430363E+05  1.780535E+05 -2.646978E-12  1.323489E-12
        76  14 -4.625788E+05 -2.616549E+05 -1.448467E+05  1.824498E+05  0.000000E+00 -2.646978E-12
        76  15 -4.772448E+05 -2.570937E+05 -1.468677E+05  1.865126E+05  1.654361E-12 -3.308722E-13
        76  16 -4.429998E+05 -2.632119E+05 -1.412423E+05  1.720216E+05 -1.323489E-12 -6.617445E-13
        76  17 -4.582647E+05 -2.570465E+05 -1.430622E+05  1.764945E+05  0.000000E+00 -2.316106E-12
        76  18 -4.740749E+05 -2.513349E+05 -1.450820E+05  1.806502E+05  6.617445E-13  1.075335E-12
        76  19 -4.550030E+05 -2.711908E+05 -1.452388E+05  1.846996E+05  9.264423E-12  6.617445E-13
        76  20 -4.679110E+05 -2.672925E+05 -1.470407E+05  1.890213E+05  6.617445E-12  6.617445E-13
        76  21 -4.814119E+05 -2.639086E+05 -1.490641E+05  1.929925E+05  3.226004E-12  1.406207E-12
        76  22 -4.484816E+05 -2.666998E+05 -1.430363E+05  1.780535E+05 -7.940934E-12 -2.646978E-12
        76  23 -4.625788E+05 -2.616549E+05 -1.448467E+05  1.824498E+05  6.617445E-12 -2.646978E-12
        76  24 -4.772448E+05 -2.570937E+05 -1.468677E+05  1.865126E+05  3.308722E-13  6.617445E-13
        76  25 -4.429998E+05 -2.632119E+05 -1.412423E+05  1.720216E+05 -5.293956E-12 -1.058791E-11
        76  26 -4.582647E+05 -2.570465E+05 -1.430622E+05  1.764945E+05  0.000000E+00  2.646978E-12
        76  27 -4.740749E+05 -2.513349E+05 -1.450820E+05  1.806502E+05 -9.264423E-12 -1.323489E-12
        77   1 -5.934078E+05 -1.508858E+05 -1.488587E+05  1.665144E+05 -1.654361E-13  0.000000E+00
        77   2 -5.598112E+05 -1.430663E+05 -1.405755E+05  1.706228E+05  2.481542E-13  1.654361E-13
        77   3 -5.218498E+05 -1.342996E+05 -1.312299E+05  1.765087E+05 -2.067952E-14 -1.654361E-13
        77   4 -5.419099E+05 -1.508056E+05 -1.385431E+05  1.723990E+05  1.323489E-12  6.617445E-13
        77   5 -5.130893E+05 -1.463370E+05 -1.318853E+05  1.763531E+05  0.000000E+00  6.617445E-13
        77   6 -4.819899E+05 -1.420583E+05 -1.248096E+05  1.820267E+05  5.790264E-13  4.963084E-13
        77   7 -4.974263E+05 -1.599671E+05 -1.314787E+05  1.734411E+05  0.000000E+00  1.323489E-12
        77   8 -4.721247E+05 -1.590323E+05 -1.262314E+05  1.778683E+05  6.617445E-13  6.617445E-13
        77   9 -4.466055E+05 -1.597469E+05 -1.212705E+05  1.841868E+05 -8.271806E-13  1.654361E-12
        77  10 -5.934078E+05 -1.508858E+05 -1.488587E+05  1.665144E+05 -8.271806E-14 -8.271806E-14
        77  11 -5.598112E+05 -1.430663E+05 -1.405755E+05  1.706228E+05  0.000000E+00  1.654361E-13
        77  12 -5.218498E+05 -1.342996E+05 -1.312299E+05  1.765087E+05 -3.101927E-14 -6.203855E-14
        77  13 -5.419099E+05 -1.508056E+05 -1.385431E+05  1.723990E+05  0.000000E+00  1.654361E-13
        77  14 -5.130893E+05 -1.463370E+05 -1.318853E+05  1.763531E+05 -1.654361E-13  0.000000E+00
        77  15 -4.819899E+05 -1.420583E+05 -1.248096E+05  1.820267E+05  4.135903E-14 -8.271806E-14
        77  16 -4.974263E+05 -1.599671E+05 -1.314787E+05  1.734411E+05  1.654361E-13  0.000000E+00
        77  17 -4.721247E+05 -1.590323E+05 -1.262314E+05  1.778683E+05  3.308722E-13  8.271806E-14
        77  18 -4.466055E+05 -1.597469E+05 -1.212705E+05  1.841868E+05  3.101927E-14  1.344168E-13
        77  19 -5.934078E+05 -1.508858E+05 -1.488587E+05  1.665144E+05 -1.654361E-13  0.000000E+00
        77  20 -5.598112E+05 -1.430663E+05 -1.405755E+05  1.706228E+05 -8.271806E-14 -1.654361E-13
        77  21 -5.218498E+05 -1.342996E+05 -1.312299E+05  1.765087E+05  2.067952E-14 -1.654361E-13
        77  22 -5.419099E+05 -1.508056E+05 -1.385431E+05  1.723990E+05  0.000000E+00  0.000000E+00
        77  23 -5.130893E+05 -1.463370E+05 -1.318853E+05  1.763531E+05  0.000000E+00 -6.617445E-13
        77  24 -4.819899E+05 -1.420583E+05 -1.248096E+05  1.820267E+05 -5.790264E-13 -4.963084E-13
        77  25 -4.974263E+05 -1.599671E+05 -1.314787E+05  1.734411E+05  0.000000E+00 -1.323489E-12
        77  26 -4.721247E+05 -1.590323E+05 -1.262314E+05  1.778683E+05 -1.985233E-12  6.617445E-13
        77  27 -4.466055E+05 -1.597469E+05 -1.212705E+05  1.841868E+05  1.654361E-13 -3.308722E-13
        78   1 -4.975930E+05 -1.308831E+05 -1.256952E+05  1.821710E+05  8.271806E-14  2.481542E-13
        78   2 -4.533701E+05 -1.212085E+05 -1.149157E+05  1.973726E+05  1.240771E-13 -8.271806E-14
        78   3 -4.066466E+05 -1.110458E+05 -1.035385E+05  2.171934E+05 -5.169879E-14 -3.101927E-14
        78   4 -4.615682E+05 -1.443050E+05 -1.211746E+05  1.866811E+05  6.617445E-13 -6.617445E-13
        78   5 -4.214597E+05 -1.408166E+05 -1.124552E+05  1.989693E+05  0.000000E+00  0.000000E+00
        78   6 -3.796518E+05 -1.376695E+05 -1.034642E+05  2.163127E+05 -2.067952E-13  3.308722E-13
        78   7 -4.273960E+05 -1.584831E+05 -1.171758E+05  1.893043E+05  6.617445E-13 -1.985233E-12
        78   8 -3.906783E+05 -1.618703E+05 -1.105097E+05  1.987755E+05  3.308722E-13  2.646978E-12
        78   9 -3.531920E+05 -1.668462E+05 -1.040076E+05  2.139054E+05  3.308722E-13  1.654361E-13
        78  10 -4.975930E+05 -1.308831E+05 -1.256952E+05  1.821710E+05 -8.271806E-14  0.000000E+00
        78  11 -4.533701E+05 -1.212085E+05 -1.149157E+05  1.973726E+05  0.000000E+00 -8.271806E-14
        78  12 -4.066466E+05 -1.110458E+05 -1.035385E+05  2.171934E+05  0.000000E+00  4.135903E-14
        78  13 -4.615682E+05 -1.443050E+05 -1.211746E+05  1.866811E+05  0.000000E+00  0.000000E+00
        78  14 -4.214597E+05 -1.408166E+05 -1.124552E+05  1.989693E+05  8.271806E-14  3.308722E-13
        78  15 -3.796518E+05 -1.376695E+05 -1.034642E+05  2.163127E+05  0.000000E+00 -4.135903E-14
        78  16 -4.273960E+05 -1.584831E+05 -1.171758E+05  1.893043E+05  4.135903E-14  0.000000E+00
        78  17 -3.906783E+05 -1.618703E+05 -1.105097E+05  1.987755E+05 -4.135903E-14  1.240771E-13
        78  18 -3.531920E+05 -1.668462E+05 -1.040076E+05  2.139054E+05 -3.101927E-14  1.861156E-13
        78  19 -4.975930E+05 -1.308831E+05 -1.256952E+05  1.821710E+05 -8.271806E-14 -2.481542E-13
        78  20 -4.533701E+05 -1.212085E+05 -1.149157E+05  1.973726E+05 -2.895132E-13  8.271806E-14
        78  21 -4.066466E+05 -1.110458E+05 -1.035385E+05  2.171934E+05  1.344168E-13  3.101927E-14
        78  22 -4.615682E+05 -1.443050E+05 -1.211746E+05  1.866811E+05 -6.617445E-13  6.617445E-13
        78  23 -4.214597E+05 -1.408166E+05 -1.124552E+05  1.989693E+05  0.000000E+00  6.617445E-13
        78  24 -3.796518E+05 -1.376695E+05 -1.034642E+05  2.163127E+05  5.376674E-13 -3.308722E-13
        78  25 -4.273960E+05 -1.584831E+05 -1.171758E+05  1.893043E+05 -6.617445E-13  6.617445E-13
        78  26 -3.906783E+05 -1.618703E+05 -1.105097E+05  1.987755E+05 -3.308722E-13  0.000000E+00
        78  27 -3.531920E+05 -1.668462E+05 -1.040076E+05  2.139054E+05 -3.308722E-13 -1.654361E-13
        79   1 -4.068061E+05 -1.667037E+05 -1.147020E+05  1.869150E+05 -3.143286E-12  4.963084E-13
        79   2 -3.718074E+05 -1.737683E+05 -1.091151E+05  1.972607E+05  2.481542E-13 -1.488925E-12
        79   3 -3.360633E+05 -1.814221E+05 -1.034971E+05  2.095599E+05  9.512577E-13  4.963084E-13
        79   4 -3.785342E+05 -1.823001E+05 -1.121669E+05  1.806446E+05  6.617445E-13  1.323489E-12
        79   5 -3.454901E+05 -1.912413E+05 -1.073463E+05  1.885239E+05 -1.985233E-12  3.308722E-12
        79   6 -3.117411E+05 -2.009346E+05 -1.025351E+05  1.983949E+05  4.963084E-13 -6.617445E-13
        79   7 -3.504832E+05 -1.955085E+05 -1.091983E+05  1.737740E+05  1.323489E-12  5.293956E-12
        79   8 -3.191602E+05 -2.063359E+05 -1.050992E+05  1.790557E+05  0.000000E+00  1.323489E-12
        79   9 -2.871633E+05 -2.181105E+05 -1.010548E+05  1.863650E+05  1.158053E-12  0.000000E+00
        79  10 -4.068061E+05 -1.667037E+05 -1.147020E+05  1.869150E+05 -1.654361E-13 -1.654361E-13
        79  11 -3.718074E+05 -1.737683E+05 -1.091151E+05  1.972607E+05  1.654361E-13  8.271806E-14
        79  12 -3.360633E+05 -1.814221E+05 -1.034971E+05  2.095599E+05  1.654361E-13 -1.447566E-13
        79  13 -3.785342E+05 -1.823001E+05 -1.121669E+05  1.806446E+05  0.000000E+00  0.000000E+00
        79  14 -3.454901E+05 -1.912413E+05 -1.073463E+05  1.885239E+05  0.000000E+00 -9.926167E-13
        79  15 -3.117411E+05 -2.009346E+05 -1.025351E+05  1.983949E+05  0.000000E+00  2.481542E-13
        79  16 -3.504832E+05 -1.955085E+05 -1.091983E+05  1.737740E+05  1.654361E-13  0.000000E+00
        79  17 -3.191602E+05 -2.063359E+05 -1.050992E+05  1.790557E+05  6.617445E-13 -2.481542E-13
        79  18 -2.871633E+05 -2.181105E+05 -1.010548E+05  1.863650E+05  2.067952E-14 -2.067952E-14
        79  19 -4.068061E+05 -1.667037E+05 -1.147020E+05  1.869150E+05  4.963084E-13  8.271806E-13
        79  20 -3.718074E+05 -1.737683E+05 -1.091151E+05  1.972607E+05  4.135903E-13 -2.481542E-12
        79  21 -3.360633E+05 -1.814221E+05 -1.034971E+05  2.095599E+05 -9.512577E-13 -1.819797E-12
        79  22 -3.785342E+05 -1.823001E+05 -1.121669E+05  1.806446E+05  6.617445E-13  1.323489E-12
        79  23 -3.454901E+05 -1.912413E+05 -1.073463E+05  1.885239E+05  6.617445E-13  1.985233E-12
        79  24 -3.117411E+05 -2.009346E+05 -1.025351E+05  1.983949E+05  1.654361E-13  6.617445E-13
        79  25 -3.504832E+05 -1.955085E+05 -1.091983E+05  1.737740E+05  0.000000E+00  2.646978E-12
        79  26 -3.191602E+05 -2.063359E+05 -1.050992E+05  1.790557E+05 -1.323489E-12 -1.323489E-12
        79  27 -2.871633E+05 -2.181105E+05 -1.010548E+05  1.863650E+05 -1.158053E-12  0.000000E+00
        80   1 -4.706121E+05 -1.681116E+05 -1.277447E+05  1.731591E+05 -9.926167E-13  2.646978E-12
        80   2 -4.478141E+05 -1.678815E+05 -1.231391E+05  1.769444E+05  1.654361E-12  1.158053E-12
        80   3 -4.250640E+05 -1.686180E+05 -1.187364E+05  1.815694E+05  1.819797E-12 -1.158053E-12
        80   4 -4.357998E+05 -1.774955E+05 -1.226591E+05  1.693667E+05  2.646978E-12  1.323489E-12
        80   5 -4.149317E+05 -1.780989E+05 -1.186061E+05  1.726321E+05  0.000000E+00  3.308722E-12
        80   6 -3.945124E+05 -1.799197E+05 -1.148864E+05  1.767459E+05  1.654361E-13  6.617445E-13
        80   7 -4.038884E+05 -1.889753E+05 -1.185727E+05  1.637748E+05 -2.646978E-12 -2.646978E-12
        80   8 -3.844332E+05 -1.902987E+05 -1.149464E+05  1.666305E+05  0.000000E+00 -3.970467E-12
        80   9 -3.658043E+05 -1.931229E+05 -1.117855E+05  1.703703E+05  3.308722E-13  1.985233E-12
        80  10 -4.706121E+05 -1.681116E+05 -1.277447E+05  1.731591E+05  0.000000E+00 -3.308722E-13
        80  11 -4.478141E+05 -1.678815E+05 -1.231391E+05  1.769444E+05  3.308722E-13  0.000000E+00
        80  12 -4.250640E+05 -1.686180E+05 -1.187364E+05  1.815694E+05 -8.271806E-14 -2.481542E-13
        80  13 -4.357998E+05 -1.774955E+05 -1.226591E+05  1.693667E+05  0.000000E+00  0.000000E+00
        80  14 -4.149317E+05 -1.780989E+05 -1.186061E+05  1.726321E+05  6.617445E-13 -3.308722E-13
        80  15 -3.945124E+05 -1.799197E+05 -1.148864E+05  1.767459E+05 -8.271806E-14 -4.135903E-13
        80  16 -4.038884E+05 -1.889753E+05 -1.185727E+05  1.637748E+05  1.654361E-13 -6.617445E-13
        80  17 -3.844332E+05 -1.902987E+05 -1.149464E+05  1.666305E+05  0.000000E+00 -4.963084E-13
        80  18 -3.658043E+05 -1.931229E+05 -1.117855E+05  1.703703E+05  2.067952E-14 -8.685396E-13
        80  19 -4.706121E+05 -1.681116E+05 -1.277447E+05  1.731591E+05 -2.977850E-12  0.000000E+00
        80  20 -4.478141E+05 -1.678815E+05 -1.231391E+05  1.769444E+05 -1.654361E-12 -1.158053E-12
        80  21 -4.250640E+05 -1.686180E+05 -1.187364E+05  1.815694E+05 -1.819797E-12 -1.654361E-13
        80  22 -4.357998E+05 -1.774955E+05 -1.226591E+05  1.693667E+05  0.000000E+00 -1.323489E-12
        80  23 -4.149317E+05 -1.780989E+05 -1.186061E+05  1.726321E+05  0.000000E+00  1.985233E-12
        80  24 -3.945124E+05 -1.799197E+05 -1.148864E+05  1.767459E+05 -1.654361E-13  6.617445E-13
        80  25 -4.038884E+05 -1.889753E+05 -1.185727E+05  1.637748E+05 -2.646978E-12  2.646978E-12
        80  26 -3.844332E+05 -1.902987E+05 -1.149464E+05  1.666305E+05  0.000000E+00  3.970467E-12
        80  27 -3.658043E+05 -1.931229E+05 -1.117855E+05  1.703703E+05 -3.308722E-13 -1.985233E-12
        81   1 -2.452592E+05 -3.857178E+05 -1.261954E+05  1.935080E+05 -1.240771E-11  7.775498E-12
        81   2 -2.058633E+05 -3.670343E+05 -1.145795E+05  1.604099E+05 -6.121137E-12  6.948317E-12
        81   3 -1.805044E+05 -3.401131E+05 -1.041235E+05  1.302954E+05 -8.747435E-12  6.307252E-12
        81   4 -3.056330E+05 -3.378710E+05 -1.287008E+05  1.925449E+05 -3.308722E-12  2.646978E-12
        81   5 -2.628393E+05 -3.259928E+05 -1.177664E+05  1.670922E+05 -6.617445E-13 -1.654361E-12
        81   6 -2.297334E+05 -3.097001E+05 -1.078867E+05  1.438111E+05 -6.452009E-12  4.880366E-12
        81   7 -3.668003E+05 -2.970751E+05 -1.327751E+05  1.947885E+05 -7.940934E-12  5.293956E-12
        81   8 -3.165744E+05 -2.880361E+05 -1.209221E+05  1.731716E+05 -3.970467E-12  4.632211E-12
        81   9 -2.737479E+05 -2.769519E+05 -1.101400E+05  1.532237E+05 -6.286573E-12  5.790264E-12
        81  10 -2.452592E+05 -3.857178E+05 -1.261954E+05  1.935080E+05 -1.654361E-13 -1.654361E-13
        81  11 -2.058633E+05 -3.670343E+05 -1.145795E+05  1.604099E+05 -4.963084E-13  3.308722E-13
        81  12 -1.805044E+05 -3.401131E+05 -1.041235E+05  1.302954E+05 -4.135903E-14 -1.240771E-13
        81  13 -3.056330E+05 -3.378710E+05 -1.287008E+05  1.925449E+05  0.000000E+00  3.308722E-13
        81  14 -2.628393E+05 -3.259928E+05 -1.177664E+05  1.670922E+05 -3.308722E-13 -1.654361E-13
        81  15 -2.297334E+05 -3.097001E+05 -1.078867E+05  1.438111E+05  1.075335E-12  3.722313E-13
        81  16 -3.668003E+05 -2.970751E+05 -1.327751E+05  1.947885E+05 -3.308722E-13 -1.654361E-13
        81  17 -3.165744E+05 -2.880361E+05 -1.209221E+05  1.731716E+05 -6.617445E-13  8.271806E-14
        81  18 -2.737479E+05 -2.769519E+05 -1.101400E+05  1.532237E+05 -8.271806E-14  2.067952E-14
        81  19 -2.452592E+05 -3.857178E+05 -1.261954E+05  1.935080E+05  1.373120E-11 -9.098987E-12
        81  20 -2.058633E+05 -3.670343E+05 -1.145795E+05  1.604099E+05  8.768114E-12 -6.948317E-12
        81  21 -1.805044E+05 -3.401131E+05 -1.041235E+05  1.302954E+05  1.139441E-11 -7.630741E-12
        81  22 -3.056330E+05 -3.378710E+05 -1.287008E+05  1.925449E+05  5.955700E-12 -5.293956E-12
        81  23 -2.628393E+05 -3.259928E+05 -1.177664E+05  1.670922E+05 -1.985233E-12  1.654361E-12
        81  24 -2.297334E+05 -3.097001E+05 -1.078867E+05  1.438111E+05  7.775498E-12 -6.203855E-12
        81  25 -3.668003E+05 -2.970751E+05 -1.327751E+05  1.947885E+05  7.940934E-12 -5.293956E-12
        81  26 -3.165744E+05 -2.880361E+05 -1.209221E+05  1.731716E+05  5.293956E-12 -5.955700E-12
        81  27 -2.737479E+05 -2.769519E+05 -1.101400E+05  1.532237E+05  7.610062E-12 -4.466775E-12
        82   1 -1.686313E+05 -3.267247E+05 -9.907120E+04  1.141591E+05 -9.098987E-12  9.595295E-12
        82   2 -1.477424E+05 -2.997818E+05 -8.950484E+04  8.953506E+04 -8.189088E-12  7.775498E-12
        82   3 -1.336414E+05 -2.698823E+05 -8.070475E+04  6.806641E+04 -8.251127E-12  6.514047E-12
        82   4 -2.096599E+05 -2.941703E+05 -1.007660E+05  1.265157E+05 -4.632211E-12  4.301339E-12
        82   5 -1.864945E+05 -2.753640E+05 -9.237171E+04  1.051617E+05 -3.308722E-13  0.000000E+00
        82   6 -1.683462E+05 -2.545479E+05 -8.457881E+04  8.597133E+04 -7.527344E-12  5.169879E-12
        82   7 -2.509418E+05 -2.651441E+05 -1.032172E+05  1.386439E+05 -7.940934E-12  5.955700E-12
        82   8 -2.241293E+05 -2.508397E+05 -9.499381E+04  1.190549E+05 -5.955700E-12  3.308722E-12
        82   9 -2.010935E+05 -2.354521E+05 -8.730912E+04  1.010131E+05 -7.940934E-12  6.534727E-12
        82  10 -1.686313E+05 -3.267247E+05 -9.907120E+04  1.141591E+05 -1.654361E-13  1.654361E-13
        82  11 -1.477424E+05 -2.997818E+05 -8.950484E+04  8.953506E+04 -2.481542E-13 -2.481542E-13
        82  12 -1.336414E+05 -2.698823E+05 -8.070475E+04  6.806641E+04 -4.135903E-14  6.203855E-14
        82  13 -2.096599E+05 -2.941703E+05 -1.007660E+05  1.265157E+05  0.000000E+00 -3.308722E-13
        82  14 -1.864945E+05 -2.753640E+05 -9.237171E+04  1.051617E+05  0.000000E+00  6.617445E-13
        82  15 -1.683462E+05 -2.545479E+05 -8.457881E+04  8.597133E+04  4.135903E-14 -1.654361E-13
        82  16 -2.509418E+05 -2.651441E+05 -1.032172E+05  1.386439E+05  0.000000E+00 -1.654361E-13
        82  17 -2.241293E+05 -2.508397E+05 -9.499381E+04  1.190549E+05  6.617445E-13  0.000000E+00
        82  18 -2.010935E+05 -2.354521E+05 -8.730912E+04  1.010131E+05  6.203855E-14 -1.240771E-13
        82  19 -1.686313E+05 -3.267247E+05 -9.907120E+04  1.141591E+05  1.042248E-11 -8.271806E-12
        82  20 -1.477424E+05 -2.997818E+05 -8.950484E+04  8.953506E+04  4.218621E-12 -7.113753E-12
        82  21 -1.336414E+05 -2.698823E+05 -8.070475E+04  6.806641E+04  8.251127E-12 -7.175792E-12
        82  22 -2.096599E+05 -2.941703E+05 -1.007660E+05  1.265157E+05  3.308722E-12 -5.624828E-12
        82  23 -1.864945E+05 -2.753640E+05 -9.237171E+04  1.051617E+05  3.308722E-13 -1.323489E-12
        82  24 -1.683462E+05 -2.545479E+05 -8.457881E+04  8.597133E+04  6.203855E-12 -5.169879E-12
        82  25 -2.509418E+05 -2.651441E+05 -1.032172E+05  1.386439E+05  7.940934E-12 -5.955700E-12
        82  26 -2.241293E+05 -2.508397E+05 -9.499381E+04  1.190549E+05  5.955700E-12 -2.646978E-12
        82  27 -2.010935E+05 -2.354521E+05 -8.730912E+04  1.010131E+05  6.617445E-12 -5.211238E-12
        83   1 -2.713144E+05 -2.506672E+05 -1.043963E+05  1.406077E+05 -5.376674E-12  4.714929E-12
        83   2 -2.427383E+05 -2.374535E+05 -9.603836E+04  1.228252E+05 -6.286573E-12  4.094544E-12
        83   3 -2.190332E+05 -2.244437E+05 -8.869540E+04  1.056142E+05 -4.870026E-12  3.091588E-12
        83   4 -2.998500E+05 -2.241898E+05 -1.048080E+05  1.411735E+05 -3.639595E-12  2.316106E-12
        83   5 -2.703932E+05 -2.146284E+05 -9.700433E+04  1.259506E+05  6.617445E-13  1.654361E-13
        83   6 -2.456075E+05 -2.053870E+05 -9.019890E+04  1.114172E+05 -2.316106E-12  2.233388E-12
        83   7 -3.289382E+05 -1.999387E+05 -1.057754E+05  1.417311E+05 -5.293956E-12  3.308722E-12
        83   8 -2.985851E+05 -1.939990E+05 -9.851682E+04  1.289748E+05 -1.654361E-12  9.926167E-13
        83   9 -2.727018E+05 -1.884918E+05 -9.223871E+04  1.170155E+05 -3.060568E-12  3.391441E-12
        83  10 -2.713144E+05 -2.506672E+05 -1.043963E+05  1.406077E+05  1.654361E-13 -1.654361E-13
        83  11 -2.427383E+05 -2.374535E+05 -9.603836E+04  1.228252E+05 -8.271806E-14 -1.654361E-13
        83  12 -2.190332E+05 -2.244437E+05 -8.869540E+04  1.056142E+05  1.033976E-13 -5.169879E-14
        83  13 -2.998500E+05 -2.241898E+05 -1.048080E+05  1.411735E+05 -3.308722E-13  0.000000E+00
        83  14 -2.703932E+05 -2.146284E+05 -9.700433E+04  1.259506E+05  0.000000E+00 -1.654361E-13
        83  15 -2.456075E+05 -2.053870E+05 -9.019890E+04  1.114172E+05  2.067952E-13  2.481542E-13
        83  16 -3.289382E+05 -1.999387E+05 -1.057754E+05  1.417311E+05 -4.963084E-13  0.000000E+00
        83  17 -2.985851E+05 -1.939990E+05 -9.851682E+04  1.289748E+05 -8.271806E-14 -8.271806E-14
        83  18 -2.727018E+05 -1.884918E+05 -9.223871E+04  1.170155E+05  1.240771E-13 -7.237830E-14
        83  19 -2.713144E+05 -2.506672E+05 -1.043963E+05  1.406077E+05  5.376674E-12 -3.391441E-12
        83  20 -2.427383E+05 -2.374535E+05 -9.603836E+04  1.228252E+05  4.963084E-12 -3.432800E-12
        83  21 -2.190332E+05 -2.244437E+05 -8.869540E+04  1.056142E+05  6.193515E-12 -3.753332E-12
        83  22 -2.998500E+05 -2.241898E+05 -1.048080E+05  1.411735E+05  3.639595E-12 -2.316106E-12
        83  23 -2.703932E+05 -2.146284E+05 -9.700433E+04  1.259506E+05 -6.617445E-13 -8.271806E-13
        83  24 -2.456075E+05 -2.053870E+05 -9.019890E+04  1.114172E+05  4.963084E-12 -3.556877E-12
        83  25 -3.289382E+05 -1.999387E+05 -1.057754E+05  1.417311E+05  2.646978E-12 -1.985233E-12
        83  26 -2.985851E+05 -1.939990E+05 -9.851682E+04  1.289748E+05  3.639595E-12 -1.654361E-12
        83  27 -2.727018E+05 -1.884918E+05 -9.223871E+04  1.170155E+05  3.060568E-12 -2.067952E-12
        84   1 -3.805945E+05 -2.779310E+05 -1.317051E+05  1.886687E+05 -3.805031E-12  5.128520E-12
        84   2 -3.367086E+05 -2.682172E+05 -1.209852E+05  1.703146E+05 -2.977850E-12  2.812414E-12
        84   3 -2.932552E+05 -2.581017E+05 -1.102714E+05  1.523368E+05 -6.886279E-12  5.748905E-12
        84   4 -3.934681E+05 -2.408949E+05 -1.268726E+05  1.768323E+05 -5.955700E-12  5.293956E-12
        84   5 -3.550765E+05 -2.333935E+05 -1.176940E+05  1.626044E+05  3.308722E-13 -3.308722E-13
        84   6 -3.184252E+05 -2.253197E+05 -1.087490E+05  1.491313E+05 -6.121137E-12  1.075335E-12
        84   7 -4.077535E+05 -2.112476E+05 -1.238002E+05  1.660258E+05 -6.617445E-12  3.970467E-12
        84   8 -3.753588E+05 -2.073999E+05 -1.165517E+05  1.565931E+05 -4.632211E-12  2.646978E-12
        84   9 -3.462878E+05 -2.029603E+05 -1.098496E+05  1.484383E+05 -3.143286E-12  3.391441E-12
        84  10 -3.805945E+05 -2.779310E+05 -1.317051E+05  1.886687E+05  0.000000E+00  1.654361E-13
        84  11 -3.367086E+05 -2.682172E+05 -1.209852E+05  1.703146E+05  0.000000E+00  1.654361E-13
        84  12 -2.932552E+05 -2.581017E+05 -1.102714E+05  1.523368E+05 -3.722313E-13  0.000000E+00
        84  13 -3.934681E+05 -2.408949E+05 -1.268726E+05  1.768323E+05  6.617445E-13  0.000000E+00
        84  14 -3.550765E+05 -2.333935E+05 -1.176940E+05  1.626044E+05 -3.308722E-13 -8.271806E-13
        84  15 -3.184252E+05 -2.253197E+05 -1.087490E+05  1.491313E+05 -6.617445E-13 -1.240771E-13
        84  16 -4.077535E+05 -2.112476E+05 -1.238002E+05  1.660258E+05  0.000000E+00 -1.654361E-13
        84  17 -3.753588E+05 -2.073999E+05 -1.165517E+05  1.565931E+05 -3.308722E-13 -4.135903E-13
        84  18 -3.462878E+05 -2.029603E+05 -1.098496E+05  1.484383E+05 -2.067952E-14 -8.271806E-14
        84  19 -3.805945E+05 -2.779310E+05 -1.317051E+05  1.886687E+05  3.805031E-12 -3.805031E-12
        84  20 -3.367086E+05 -2.682172E+05 -1.209852E+05  1.703146E+05  4.301339E-12 -5.459392E-12
        84  21 -2.932552E+05 -2.581017E+05 -1.102714E+05  1.523368E+05  6.886279E-12 -4.425416E-12
        84  22 -3.934681E+05 -2.408949E+05 -1.268726E+05  1.768323E+05  6.617445E-13 -1.323489E-12
        84  23 -3.550765E+05 -2.333935E+05 -1.176940E+05  1.626044E+05 -3.308722E-13  1.654361E-12
        84  24 -3.184252E+05 -2.253197E+05 -1.087490E+05  1.491313E+05  3.474159E-12 -3.722313E-12
        84  25 -4.077535E+05 -2.112476E+05 -1.238002E+05  1.660258E+05  6.617445E-12 -2.646978E-12
        84  26 -3.753588E+05 -2.073999E+05 -1.165517E+05  1.565931E+05  3.308722E-12 -3.970467E-12
        84  27 -3.462878E+05 -2.029603E+05 -1.098496E+05  1.484383E+05  4.466775E-12 -3.391441E-12
        85   1 -2.734124E+05 -1.683320E+05 -8.834887E+04  1.144634E+03  5.293956E-12 -1.323489E-11
        85   2 -2.655428E+05 -1.660979E+05 -8.632814E+04  9.575967E+03  1.290402E-11 -9.264423E-12
        85   3 -2.600010E+05 -1.644309E+05 -8.488639E+04  1.794787E+04  3.060568E-12 -1.191140E-11
        85   4 -2.771972E+05 -1.745220E+05 -9.034385E+04  1.462228E+03 -2.646978E-12 -1.058791E-11
        85   5 -2.702625E+05 -1.722494E+05 -8.850239E+04  1.102932E+04 -6.617445E-12  2.117582E-11
        85   6 -2.655884E+05 -1.705268E+05 -8.722303E+04  2.054295E+04  1.654361E-11  1.191140E-11
        85   7 -2.810755E+05 -1.810294E+05 -9.242098E+04  2.205076E+03  5.293956E-12  2.117582E-11
        85   8 -2.750626E+05 -1.787252E+05 -9.075756E+04  1.288114E+04  1.588187E-11 -4.235165E-11
        85   9 -2.712447E+05 -1.769544E+05 -8.963982E+04  2.350938E+04  1.389663E-11 -3.970467E-11
        85  10 -2.734124E+05 -1.683320E+05 -8.834887E+04  1.144634E+03  1.323489E-12  0.000000E+00
        85  11 -2.655428E+05 -1.660979E+05 -8.632814E+04  9.575967E+03 -6.617445E-13 -2.646978E-12
        85  12 -2.600010E+05 -1.644309E+05 -8.488639E+04  1.794787E+04  3.308722E-13 -6.617445E-13
        85  13 -2.771972E+05 -1.745220E+05 -9.034385E+04  1.462228E+03  0.000000E+00  5.293956E-12
        85  14 -2.702625E+05 -1.722494E+05 -8.850239E+04  1.102932E+04  1.985233E-12 -1.058791E-11
        85  15 -2.655884E+05 -1.705268E+05 -8.722303E+04  2.054295E+04  1.654361E-13  2.646978E-12
        85  16 -2.810755E+05 -1.810294E+05 -9.242098E+04  2.205076E+03  0.000000E+00 -2.646978E-12
        85  17 -2.750626E+05 -1.787252E+05 -9.075756E+04  1.288114E+04  0.000000E+00 -1.323489E-12
        85  18 -2.712447E+05 -1.769544E+05 -8.963982E+04  2.350938E+04  2.481542E-13  2.646978E-12
        85  19 -2.734124E+05 -1.683320E+05 -8.834887E+04  1.144634E+03 -5.293956E-12 -7.940934E-12
        85  20 -2.655428E+05 -1.660979E+05 -8.632814E+04  9.575967E+03  2.977850E-12  9.264423E-12
        85  21 -2.600010E+05 -1.644309E+05 -8.488639E+04  1.794787E+04 -3.060568E-12  3.308722E-11
        85  22 -2.771972E+05 -1.745220E+05 -9.034385E+04  1.462228E+03 -7.940934E-12 -3.176374E-11
        85  23 -2.702625E+05 -1.722494E+05 -8.850239E+04  1.102932E+04 -3.970467E-12  2.117582E-11
        85  24 -2.655884E+05 -1.705268E+05 -8.722303E+04  2.054295E+04 -1.654361E-11  3.044025E-11
        85  25 -2.810755E+05 -1.810294E+05 -9.242098E+04  2.205076E+03 -5.293956E-12 -2.117582E-11
        85  26 -2.750626E+05 -1.787252E+05 -9.075756E+04  1.288114E+04 -2.117582E-11  4.235165E-11
        85  27 -2.712447E+05 -1.769544E+05 -8.963982E+04  2.350938E+04 -8.602678E-12 -2.646978E-12
        86   1 -2.573955E+05 -1.621349E+05 -8.390608E+04  2.220663E+04  1.191140E-11 -1.323489E-11
        86   2 -2.535778E+05 -1.572941E+05 -8.217437E+04  2.862858E+04  1.323489E-11 -1.852885E-11
        86   3 -2.511734E+05 -1.527868E+05 -8.079205E+04  3.502262E+04  1.240771E-12  2.316106E-11
        86   4 -2.632965E+05 -1.680948E+05 -8.627826E+04  2.534677E+04  0.000000E+00 -2.117582E-11
        86   5 -2.596377E+05 -1.626261E+05 -8.445277E+04  3.233402E+04 -6.617445E-12  5.293956E-12
        86   6 -2.572755E+05 -1.574425E+05 -8.294361E+04  3.932728E+04  5.955700E-12 -9.264423E-12
        86   7 -2.692722E+05 -1.744522E+05 -8.874489E+04  2.880111E+04  5.293956E-12  0.000000E+00
        86   8 -2.657349E+05 -1.683324E+05 -8.681345E+04  3.631761E+04  1.852885E-11  1.058791E-11
        86   9 -2.633800E+05 -1.624485E+05 -8.516570E+04  4.386339E+04 -4.632211E-12 -3.705769E-11
        86  10 -2.573955E+05 -1.621349E+05 -8.390608E+04  2.220663E+04 -1.323489E-12  0.000000E+00
        86  11 -2.535778E+05 -1.572941E+05 -8.217437E+04  2.862858E+04 -3.308722E-13  2.646978E-12
        86  12 -2.511734E+05 -1.527868E+05 -8.079205E+04  3.502262E+04 -4.135903E-13  5.293956E-12
        86  13 -2.632965E+05 -1.680948E+05 -8.627826E+04  2.534677E+04 -2.646978E-12 -5.293956E-12
        86  14 -2.596377E+05 -1.626261E+05 -8.445277E+04  3.233402E+04  2.646978E-12 -2.646978E-12
        86  15 -2.572755E+05 -1.574425E+05 -8.294361E+04  3.932728E+04  1.985233E-12 -3.970467E-12
        86  16 -2.692722E+05 -1.744522E+05 -8.874489E+04  2.880111E+04  6.617445E-13 -5.293956E-12
        86  17 -2.657349E+05 -1.683324E+05 -8.681345E+04  3.631761E+04  3.308722E-12  7.940934E-12
        86  18 -2.633800E+05 -1.624485E+05 -8.516570E+04  4.386339E+04  1.654361E-13 -2.316106E-12
        86  19 -2.573955E+05 -1.621349E+05 -8.390608E+04  2.220663E+04 -1.191140E-11  1.323489E-11
        86  20 -2.535778E+05 -1.572941E+05 -8.217437E+04  2.862858E+04 -1.323489E-11  3.970467E-11
        86  21 -2.511734E+05 -1.527868E+05 -8.079205E+04  3.502262E+04 -1.182868E-11  1.919059E-11
        86  22 -2.632965E+05 -1.680948E+05 -8.627826E+04  2.534677E+04  5.293956E-12  0.000000E+00
        86  23 -2.596377E+05 -1.626261E+05 -8.445277E+04  3.233402E+04  6.617445E-12 -5.293956E-12
        86  24 -2.572755E+05 -1.574425E+05 -8.294361E+04  3.932728E+04 -1.654361E-11  9.264423E-12
        86  25 -2.692722E+05 -1.744522E+05 -8.874489E+04  2.880111E+04 -1.058791E-11 -2.117582E-11
        86  26 -2.657349E+05 -1.683324E+05 -8.681345E+04  3.631761E+04 -1.323489E-11 -1.058791E-11
        86  27 -2.633800E+05 -1.624485E+05 -8.516570E+04  4.386339E+04 -5.955700E-12  3.705769E-11
        87   1 -2.727436E+05 -1.787972E+05 -9.030815E+04  3.081664E+04  3.308722E-12 -1.852885E-11
        87   2 -2.698588E+05 -1.724177E+05 -8.845529E+04  3.890488E+04  1.025704E-11 -1.455838E-11
        87   3 -2.676177E+05 -1.659999E+05 -8.672351E+04  4.680890E+04  1.522012E-11  6.617445E-12
        87   4 -2.775459E+05 -1.866839E+05 -9.284595E+04  3.329472E+04  1.058791E-11  0.000000E+00
        87   5 -2.758594E+05 -1.798004E+05 -9.113197E+04  4.250168E+04  2.646978E-12 -3.176374E-11
        87   6 -2.747936E+05 -1.729095E+05 -8.954063E+04  5.161042E+04  1.952146E-11 -3.308722E-11
        87   7 -2.826493E+05 -1.955272E+05 -9.563530E+04  3.637910E+04 -5.293956E-12  0.000000E+00
        87   8 -2.821287E+05 -1.882867E+05 -9.408309E+04  4.666663E+04 -7.940934E-12 -2.117582E-11
        87   9 -2.822049E+05 -1.810803E+05 -9.265705E+04  5.692998E+04 -2.646978E-12  4.235165E-11
        87  10 -2.727436E+05 -1.787972E+05 -9.030815E+04  3.081664E+04  0.000000E+00 -2.646978E-12
        87  11 -2.698588E+05 -1.724177E+05 -8.845529E+04  3.890488E+04  9.926167E-13  2.646978E-12
        87  12 -2.676177E+05 -1.659999E+05 -8.672351E+04  4.680890E+04  1.571643E-12  4.301339E-12
        87  13 -2.775459E+05 -1.866839E+05 -9.284595E+04  3.329472E+04 -2.646978E-12 -1.058791E-11
        87  14 -2.758594E+05 -1.798004E+05 -9.113197E+04  4.250168E+04  0.000000E+00  0.000000E+00
        87  15 -2.747936E+05 -1.729095E+05 -8.954063E+04  5.161042E+04  3.308722E-12 -5.293956E-12
        87  16 -2.826493E+05 -1.955272E+05 -9.563530E+04  3.637910E+04 -6.617445E-13  0.000000E+00
        87  17 -2.821287E+05 -1.882867E+05 -9.408309E+04  4.666663E+04  0.000000E+00  1.058791E-11
        87  18 -2.822049E+05 -1.810803E+05 -9.265705E+04  5.692998E+04  1.654361E-13 -2.646978E-12
        87  19 -2.727436E+05 -1.787972E+05 -9.030815E+04  3.081664E+04 -8.602678E-12  1.852885E-11
        87  20 -2.698588E+05 -1.724177E+05 -8.845529E+04  3.890488E+04 -2.084495E-11 -6.617445E-12
        87  21 -2.676177E+05 -1.659999E+05 -8.672351E+04  4.680890E+04 -1.522012E-11 -6.617445E-12
        87  22 -2.775459E+05 -1.866839E+05 -9.284595E+04  3.329472E+04  0.000000E+00 -2.117582E-11
        87  23 -2.758594E+05 -1.798004E+05 -9.113197E+04  4.250168E+04  7.940934E-12 -1.058791E-11
        87  24 -2.747936E+05 -1.729095E+05 -8.954063E+04  5.161042E+04  1.654361E-12  1.191140E-11
        87  25 -2.826493E+05 -1.955272E+05 -9.563530E+04  3.637910E+04  5.293956E-12 -4.235165E-11
        87  26 -2.821287E+05 -1.882867E+05 -9.408309E+04  4.666663E+04 -7.940934E-12  2.117582E-11
        87  27 -2.822049E+05 -1.810803E+05 -9.265705E+04  5.692998E+04 -7.940934E-12 -4.235165E-11
        88   1 -2.822230E+05 -1.846917E+05 -9.338295E+04  2.331390E+03  4.632211E-12  1.455838E-11
        88   2 -2.771793E+05 -1.827040E+05 -9.197666E+04  1.368161E+04  1.522012E-11 -1.852885E-11
        88   3 -2.742590E+05 -1.812440E+05 -9.110059E+04  2.502705E+04  5.790264E-13  1.985233E-11
        88   4 -2.834954E+05 -1.910134E+05 -9.490176E+04  2.336553E+03  5.293956E-12 -1.058791E-11
        88   5 -2.799153E+05 -1.897947E+05 -9.394198E+04  1.449049E+04  7.940934E-12  1.058791E-11
        88   6 -2.782949E+05 -1.890745E+05 -9.347387E+04  2.654227E+04 -6.948317E-12 -9.264423E-12
        88   7 -2.848381E+05 -1.974977E+05 -9.646717E+04  2.870120E+03  1.058791E-11  1.058791E-11
        88   8 -2.827136E+05 -1.969630E+05 -9.593533E+04  1.575262E+04  2.646978E-12  0.000000E+00
        88   9 -2.823816E+05 -1.969102E+05 -9.585836E+04  2.844448E+04  6.617445E-12  5.293956E-12
        88  10 -2.822230E+05 -1.846917E+05 -9.338295E+04  2.331390E+03  0.000000E+00  0.000000E+00
        88  11 -2.771793E+05 -1.827040E+05 -9.197666E+04  1.368161E+04 -9.926167E-13 -2.646978E-12
        88  12 -2.742590E+05 -1.812440E+05 -9.110059E+04  2.502705E+04 -9.926167E-13  4.963084E-12
        88  13 -2.834954E+05 -1.910134E+05 -9.490176E+04  2.336553E+03  0.000000E+00 -5.293956E-12
        88  14 -2.799153E+05 -1.897947E+05 -9.394198E+04  1.449049E+04  0.000000E+00  2.646978E-12
        88  15 -2.782949E+05 -1.890745E+05 -9.347387E+04  2.654227E+04  1.158053E-12 -2.646978E-12
        88  16 -2.848381E+05 -1.974977E+05 -9.646717E+04  2.870120E+03 -6.617445E-13 -2.646978E-12
        88  17 -2.827136E+05 -1.969630E+05 -9.593533E+04  1.575262E+04 -2.646978E-12  0.000000E+00
        88  18 -2.823816E+05 -1.969102E+05 -9.585836E+04  2.844448E+04 -1.406207E-12  6.617445E-13
        88  19 -2.822230E+05 -1.846917E+05 -9.338295E+04  2.331390E+03 -4.632211E-12  6.617445E-12
        88  20 -2.771793E+05 -1.827040E+05 -9.197666E+04  1.368161E+04  5.955700E-12  1.852885E-11
        88  21 -2.742590E+05 -1.812440E+05 -9.110059E+04  2.502705E+04 -5.790264E-13  1.323489E-12
        88  22 -2.834954E+05 -1.910134E+05 -9.490176E+04  2.336553E+03  0.000000E+00  3.176374E-11
        88  23 -2.799153E+05 -1.897947E+05 -9.394198E+04  1.449049E+04  2.646978E-12  1.058791E-11
        88  24 -2.782949E+05 -1.890745E+05 -9.347387E+04  2.654227E+04 -1.422751E-11  3.044025E-11
        88  25 -2.848381E+05 -1.974977E+05 -9.646717E+04  2.870120E+03 -5.293956E-12 -1.058791E-11
        88  26 -2.827136E+05 -1.969630E+05 -9.593533E+04  1.575262E+04 -2.646978E-12 -2.117582E-11
        88  27 -2.823816E+05 -1.969102E+05 -9.585836E+04  2.844448E+04 -6.617445E-12 -5.293956E-12
        89   1 -2.623443E+05 -3.267704E+05 -1.178229E+05  7.262306E+03  1.654361E-12 -5.293956E-12
        89   2 -2.670398E+05 -3.202345E+05 -1.174548E+05  6.149893E+03  3.639595E-12  6.617445E-13
        89   3 -2.720339E+05 -3.149980E+05 -1.174064E+05  4.594034E+03  1.116694E-12  6.121137E-12
        89   4 -2.621355E+05 -3.242936E+05 -1.172858E+05  2.578898E+04  1.323489E-12 -1.323489E-11
        89   5 -2.678239E+05 -3.178614E+05 -1.171371E+05  2.331361E+04  2.646978E-12  5.293956E-12
        89   6 -2.737865E+05 -3.126919E+05 -1.172957E+05  2.046066E+04  3.308722E-12  6.617445E-13
        89   7 -2.647773E+05 -3.225268E+05 -1.174608E+05  4.421930E+04  0.000000E+00  1.588187E-11
        89   8 -2.713331E+05 -3.161656E+05 -1.174997E+05  4.041700E+04  5.293956E-12 -1.323489E-11
        89   9 -2.781445E+05 -3.110327E+05 -1.178354E+05  3.629931E+04  6.286573E-12 -7.940934E-12
        89  10 -2.623443E+05 -3.267704E+05 -1.178229E+05  7.262306E+03  0.000000E+00 -2.646978E-12
        89  11 -2.670398E+05 -3.202345E+05 -1.174548E+05  6.149893E+03  0.000000E+00 -1.985233E-12
        89  12 -2.720339E+05 -3.149980E+05 -1.174064E+05  4.594034E+03 -4.135903E-14  6.617445E-13
        89  13 -2.621355E+05 -3.242936E+05 -1.172858E+05  2.578898E+04  6.617445E-13  2.646978E-12
        89  14 -2.678239E+05 -3.178614E+05 -1.171371E+05  2.331361E+04 -1.985233E-12 -1.323489E-12
        89  15 -2.737865E+05 -3.126919E+05 -1.172957E+05  2.046066E+04  1.240771E-12 -1.985233E-12
        89  16 -2.647773E+05 -3.225268E+05 -1.174608E+05  4.421930E+04 -3.308722E-13 -6.617445E-13
        89  17 -2.713331E+05 -3.161656E+05 -1.174997E+05  4.041700E+04 -3.308722E-13 -3.308722E-12
        89  18 -2.781445E+05 -3.110327E+05 -1.178354E+05  3.629931E+04  3.722313E-13  1.158053E-12
        89  19 -2.623443E+05 -3.267704E+05 -1.178229E+05  7.262306E+03 -4.301339E-12 -5.293956E-12
        89  20 -2.670398E+05 -3.202345E+05 -1.174548E+05  6.149893E+03 -9.926167E-13  9.926167E-12
        89  21 -2.720339E+05 -3.149980E+05 -1.174064E+05  4.594034E+03  1.530284E-12 -6.121137E-12
        89  22 -2.621355E+05 -3.242936E+05 -1.172858E+05  2.578898E+04 -3.970467E-12  2.646978E-12
        89  23 -2.678239E+05 -3.178614E+05 -1.171371E+05  2.331361E+04  2.646978E-12 -5.293956E-12
        89  24 -2.737865E+05 -3.126919E+05 -1.172957E+05  2.046066E+04 -6.617445E-13  9.926167E-12
        89  25 -2.647773E+05 -3.225268E+05 -1.174608E+05  4.421930E+04 -2.646978E-12  5.293956E-12
        89  26 -2.713331E+05 -3.161656E+05 -1.174997E+05  4.041700E+04 -1.058791E-11  1.323489E-11
        89  27 -2.781445E+05 -3.110327E+05 -1.178354E+05  3.629931E+04 -6.286573E-12  7.940934E-12
        90   1 -2.724427E+05 -3.114504E+05 -1.167786E+05  4.286544E+03  3.639595E-12 -7.279189E-12
        90   2 -2.732219E+05 -3.049632E+05 -1.156370E+05  4.199400E+03  3.308722E-12 -9.264423E-12
        90   3 -2.740067E+05 -2.985578E+05 -1.145129E+05  3.795328E+03  7.610062E-12 -9.429859E-12
        90   4 -2.751106E+05 -3.093989E+05 -1.169019E+05  1.976016E+04  2.646978E-12 -7.940934E-12
        90   5 -2.767205E+05 -3.035042E+05 -1.160449E+05  1.882440E+04  6.617445E-13  2.646978E-12
        90   6 -2.783321E+05 -2.976864E+05 -1.152037E+05  1.758188E+04  1.025704E-11 -5.293956E-12
        90   7 -2.798758E+05 -3.078911E+05 -1.175534E+05  3.504439E+04  2.646978E-12  1.058791E-11
        90   8 -2.822924E+05 -3.025813E+05 -1.169747E+05  3.326493E+04  6.617445E-12 -1.588187E-11
        90   9 -2.847069E+05 -2.973435E+05 -1.164101E+05  3.118877E+04  9.595295E-12 -7.940934E-12
        90  10 -2.724427E+05 -3.114504E+05 -1.167786E+05  4.286544E+03  0.000000E+00 -1.323489E-12
        90  11 -2.732219E+05 -3.049632E+05 -1.156370E+05  4.199400E+03  0.000000E+00  3.308722E-12
        90  12 -2.740067E+05 -2.985578E+05 -1.145129E+05  3.795328E+03 -4.549493E-13  1.985233E-12
        90  13 -2.751106E+05 -3.093989E+05 -1.169019E+05  1.976016E+04  6.617445E-13  0.000000E+00
        90  14 -2.767205E+05 -3.035042E+05 -1.160449E+05  1.882440E+04  9.926167E-13 -1.323489E-12
        90  15 -2.783321E+05 -2.976864E+05 -1.152037E+05  1.758188E+04  0.000000E+00 -1.323489E-12
        90  16 -2.798758E+05 -3.078911E+05 -1.175534E+05  3.504439E+04  0.000000E+00  0.000000E+00
        90  17 -2.822924E+05 -3.025813E+05 -1.169747E+05  3.326493E+04  3.308722E-13 -6.617445E-13
        90  18 -2.847069E+05 -2.973435E+05 -1.164101E+05  3.118877E+04  4.549493E-13  8.271806E-13
        90  19 -2.724427E+05 -3.114504E+05 -1.167786E+05  4.286544E+03 -3.639595E-12  7.279189E-12
        90  20 -2.732219E+05 -3.049632E+05 -1.156370E+05  4.199400E+03 -6.617445E-13 -1.323489E-12
        90  21 -2.740067E+05 -2.985578E+05 -1.145129E+05  3.795328E+03 -7.610062E-12  9.429859E-12
        90  22 -2.751106E+05 -3.093989E+05 -1.169019E+05  1.976016E+04 -2.646978E-12 -2.646978E-12
        90  23 -2.767205E+05 -3.035042E+05 -1.160449E+05  1.882440E+04  4.632211E-12 -2.646978E-12
        90  24 -2.783321E+05 -2.976864E+05 -1.152037E+05  1.758188E+04 -7.610062E-12  1.588187E-11
        90  25 -2.798758E+05 -3.078911E+05 -1.175534E+05  3.504439E+04  0.000000E+00  0.000000E+00
        90  26 -2.822924E+05 -3.025813E+05 -1.169747E+05  3.326493E+04 -6.617445E-12  5.293956E-12
        90  27 -2.847069E+05 -2.973435E+05 -1.164101E+05  3.118877E+04 -4.301339E-12  7.940934E-12
        91   1 -2.837471E+05 -3.067622E+05 -1.181019E+05  4.423698E+04  4.301339E-12  2.646978E-12
        91   2 -2.862397E+05 -3.018441E+05 -1.176167E+05  4.179717E+04  9.926167E-13 -2.977850E-12
        91   3 -2.886805E+05 -2.966208E+05 -1.170603E+05  3.966911E+04  1.129102E-11 -1.687448E-11
        91   4 -2.916990E+05 -3.024389E+05 -1.188276E+05  5.961056E+04  1.323489E-12 -1.588187E-11
        91   5 -2.938077E+05 -2.987042E+05 -1.185024E+05  5.663733E+04 -6.617445E-12  5.293956E-12
        91   6 -2.958671E+05 -2.946375E+05 -1.181009E+05  5.398854E+04  7.113753E-12 -4.963084E-12
        91   7 -3.016705E+05 -2.987599E+05 -1.200861E+05  7.441781E+04  5.293956E-12  0.000000E+00
        91   8 -3.033600E+05 -2.961947E+05 -1.199109E+05  7.092376E+04  0.000000E+00  1.058791E-11
        91   9 -3.050034E+05 -2.932710E+05 -1.196549E+05  6.776654E+04  3.639595E-12  1.852885E-11
        91  10 -2.837471E+05 -3.067622E+05 -1.181019E+05  4.423698E+04  6.617445E-13  6.617445E-13
        91  11 -2.862397E+05 -3.018441E+05 -1.176167E+05  4.179717E+04  0.000000E+00  0.000000E+00
        91  12 -2.886805E+05 -2.966208E+05 -1.170603E+05  3.966911E+04  5.790264E-13 -1.488925E-12
        91  13 -2.916990E+05 -3.024389E+05 -1.188276E+05  5.961056E+04  0.000000E+00 -2.646978E-12
        91  14 -2.938077E+05 -2.987042E+05 -1.185024E+05  5.663733E+04  1.323489E-12  2.646978E-12
        91  15 -2.958671E+05 -2.946375E+05 -1.181009E+05  5.398854E+04  9.926167E-13  3.308722E-13
        91  16 -3.016705E+05 -2.987599E+05 -1.200861E+05  7.441781E+04  9.926167E-13  1.323489E-12
        91  17 -3.033600E+05 -2.961947E+05 -1.199109E+05  7.092376E+04 -1.654361E-13 -1.985233E-12
        91  18 -3.050034E+05 -2.932710E+05 -1.196549E+05  6.776654E+04  4.135903E-14  2.316106E-12
        91  19 -2.837471E+05 -3.067622E+05 -1.181019E+05  4.423698E+04 -1.654361E-12 -2.646978E-12
        91  20 -2.862397E+05 -3.018441E+05 -1.176167E+05  4.179717E+04 -9.926167E-13 -7.610062E-12
        91  21 -2.886805E+05 -2.966208E+05 -1.170603E+05  3.966911E+04 -5.997059E-12  1.687448E-11
        91  22 -2.916990E+05 -3.024389E+05 -1.188276E+05  5.961056E+04 -9.264423E-12  1.588187E-11
        91  23 -2.938077E+05 -2.987042E+05 -1.185024E+05  5.663733E+04  1.323489E-12 -1.588187E-11
        91  24 -2.958671E+05 -2.946375E+05 -1.181009E+05  5.398854E+04 -7.113753E-12  1.555100E-11
        91  25 -3.016705E+05 -2.987599E+05 -1.200861E+05  7.441781E+04 -5.293956E-12  1.058791E-11
        91  26 -3.033600E+05 -2.961947E+05 -1.199109E+05  7.092376E+04 -5.293956E-12  0.000000E+00
        91  27 -3.050034E+05 -2.932710E+05 -1.196549E+05  6.776654E+04 -3.639595E-12 -7.940934E-12
        92   1 -2.679334E+05 -3.143168E+05 -1.164500E+05  5.818769E+04  4.301339E-12  7.940934E-12
        92   2 -2.748947E+05 -3.125091E+05 -1.174808E+05  5.161978E+04  2.316106E-12 -1.621274E-11
        92   3 -2.817407E+05 -3.094995E+05 -1.182480E+05  4.606981E+04  4.963084E-13 -7.858216E-12
        92   4 -2.790161E+05 -3.066083E+05 -1.171249E+05  7.532191E+04  1.323489E-12  1.323489E-11
        92   5 -2.842575E+05 -3.060262E+05 -1.180567E+05  6.813078E+04 -4.632211E-12  6.617445E-12
        92   6 -2.894286E+05 -3.042232E+05 -1.187304E+05  6.196139E+04 -1.654361E-13 -1.488925E-11
        92   7 -2.931256E+05 -2.999336E+05 -1.186118E+05  9.162694E+04  5.293956E-12  1.058791E-11
        92   8 -2.966106E+05 -3.005238E+05 -1.194269E+05  8.385123E+04  7.940934E-12  5.293956E-12
        92   9 -3.000702E+05 -2.998769E+05 -1.199894E+05  7.709927E+04  6.617445E-13  5.293956E-12
        92  10 -2.679334E+05 -3.143168E+05 -1.164500E+05  5.818769E+04  0.000000E+00 -6.617445E-13
        92  11 -2.748947E+05 -3.125091E+05 -1.174808E+05  5.161978E+04  1.654361E-13 -6.617445E-13
        92  12 -2.817407E+05 -3.094995E+05 -1.182480E+05  4.606981E+04 -7.031035E-13  2.150670E-12
        92  13 -2.790161E+05 -3.066083E+05 -1.171249E+05  7.532191E+04 -6.617445E-13  2.646978E-12
        92  14 -2.842575E+05 -3.060262E+05 -1.180567E+05  6.813078E+04  1.985233E-12  2.646978E-12
        92  15 -2.894286E+05 -3.042232E+05 -1.187304E+05  6.196139E+04  3.308722E-13  2.646978E-12
        92  16 -2.931256E+05 -2.999336E+05 -1.186118E+05  9.162694E+04  3.308722E-13  6.617445E-13
        92  17 -2.966106E+05 -3.005238E+05 -1.194269E+05  8.385123E+04  4.963084E-13 -3.970467E-12
        92  18 -3.000702E+05 -2.998769E+05 -1.199894E+05  7.709927E+04 -4.135903E-13 -3.308722E-13
        92  19 -2.679334E+05 -3.143168E+05 -1.164500E+05  5.818769E+04 -4.301339E-12  7.940934E-12
        92  20 -2.748947E+05 -3.125091E+05 -1.174808E+05  5.161978E+04 -4.963084E-12  5.624828E-12
        92  21 -2.817407E+05 -3.094995E+05 -1.182480E+05  4.606981E+04 -4.963084E-13  7.858216E-12
        92  22 -2.790161E+05 -3.066083E+05 -1.171249E+05  7.532191E+04 -1.323489E-12 -2.646978E-12
        92  23 -2.842575E+05 -3.060262E+05 -1.180567E+05  6.813078E+04  1.985233E-12 -6.617445E-12
        92  24 -2.894286E+05 -3.042232E+05 -1.187304E+05  6.196139E+04 -1.042248E-11  4.301339E-12
        92  25 -2.931256E+05 -2.999336E+05 -1.186118E+05  9.162694E+04 -2.646978E-12  0.000000E+00
        92  26 -2.966106E+05 -3.005238E+05 -1.194269E+05  8.385123E+04 -5.293956E-12 -5.293956E-12
        92  27 -3.000702E+05 -2.998769E+05 -1.199894E+05  7.709927E+04 -3.308722E-12 -5.293956E-12
        93   1 -1.051484E+05 -1.496864E+05 -5.096695E+04  6.059395E+03 -1.737079E-12  3.846390E-12
        93   2 -1.034587E+05 -1.378843E+05 -4.826860E+04  2.816414E+03 -1.819797E-12  3.122607E-12
        93   3 -1.030240E+05 -1.269519E+05 -4.599519E+04  3.833241E+02 -6.307252E-13  2.910642E-12
        93   4 -1.190201E+05 -1.542827E+05 -5.466057E+04  1.691195E+04 -1.654361E-12  3.474159E-12
        93   5 -1.158927E+05 -1.445036E+05 -5.207926E+04  1.224436E+04  3.308722E-13  3.308722E-13
        93   6 -1.135893E+05 -1.350182E+05 -4.972150E+04  8.030824E+03 -9.098987E-13  2.874453E-12
        93   7 -1.321890E+05 -1.558675E+05 -5.761131E+04  2.743113E+04 -2.646978E-12  3.639595E-12
        93   8 -1.272501E+05 -1.466854E+05 -5.478712E+04  2.109561E+04 -6.617445E-13  3.308722E-12
        93   9 -1.227572E+05 -1.375819E+05 -5.206782E+04  1.487573E+04 -2.316106E-12  3.391441E-12
        93  10 -1.051484E+05 -1.496864E+05 -5.096695E+04  6.059395E+03  8.271806E-14 -4.135903E-14
        93  11 -1.034587E+05 -1.378843E+05 -4.826860E+04  2.816414E+03 -1.240771E-13 -4.135903E-14
        93  12 -1.030240E+05 -1.269519E+05 -4.599519E+04  3.833241E+02  3.101927E-14 -5.169879E-14
        93  13 -1.190201E+05 -1.542827E+05 -5.466057E+04  1.691195E+04  0.000000E+00  1.654361E-13
        93  14 -1.158927E+05 -1.445036E+05 -5.207926E+04  1.224436E+04  8.271806E-14 -8.271806E-14
        93  15 -1.135893E+05 -1.350182E+05 -4.972150E+04  8.030824E+03  4.135903E-14  6.203855E-14
        93  16 -1.321890E+05 -1.558675E+05 -5.761131E+04  2.743113E+04 -8.271806E-14  8.271806E-14
        93  17 -1.272501E+05 -1.466854E+05 -5.478712E+04  2.109561E+04  2.481542E-13  6.203855E-14
        93  18 -1.227572E+05 -1.375819E+05 -5.206782E+04  1.487573E+04 -6.203855E-14 -3.101927E-14
        93  19 -1.051484E+05 -1.496864E+05 -5.096695E+04  6.059395E+03  1.075335E-12 -3.515518E-12
        93  20 -1.034587E+05 -1.378843E+05 -4.826860E+04  2.816414E+03  1.158053E-12 -3.122607E-12
        93  21 -1.030240E+05 -1.269519E+05 -4.599519E+04  3.833241E+02  1.292470E-12 -2.910642E-12
        93  22 -1.190201E+05 -1.542827E+05 -5.466057E+04  1.691195E+04  1.654361E-12 -3.474159E-12
        93  23 -1.158927E+05 -1.445036E+05 -5.207926E+04  1.224436E+04  9.926167E-13  0.000000E+00
        93  24 -1.135893E+05 -1.350182E+05 -4.972150E+04  8.030824E+03  9.098987E-13 -3.205325E-12
        93  25 -1.321890E+05 -1.558675E+05 -5.761131E+04  2.743113E+04  2.646978E-12 -3.639595E-12
        93  26 -1.272501E+05 -1.466854E+05 -5.478712E+04  2.109561E+04  6.617445E-13 -3.308722E-12
        93  27 -1.227572E+05 -1.375819E+05 -5.206782E+04  1.487573E+04  2.316106E-12 -3.722313E-12
        94   1 -1.036484E+05 -1.243292E+05 -4.559553E+04  1.566124E+02 -8.271806E-13  3.453479E-12
        94   2 -1.028959E+05 -1.156880E+05 -4.371678E+04  5.205514E+01 -1.819797E-12  2.626298E-12
        94   3 -1.023878E+05 -1.079540E+05 -4.206837E+04  4.577657E+02  2.067952E-13  2.520316E-12
        94   4 -1.126026E+05 -1.298700E+05 -4.849453E+04  6.546775E+03 -6.617445E-13  2.398824E-12
        94   5 -1.112880E+05 -1.233645E+05 -4.693050E+04  5.612883E+03 -4.963084E-13 -5.790264E-13
        94   6 -1.098488E+05 -1.170674E+05 -4.538323E+04  5.019792E+03 -1.033976E-12  2.522901E-12
        94   7 -1.209555E+05 -1.331385E+05 -5.081881E+04  1.260906E+04  3.308722E-13  2.812414E-12
        94   8 -1.186733E+05 -1.276830E+05 -4.927125E+04  1.048604E+04 -1.323489E-12  2.729696E-12
        94   9 -1.159714E+05 -1.221515E+05 -4.762460E+04  8.601803E+03 -1.033976E-12  2.915812E-12
        94  10 -1.036484E+05 -1.243292E+05 -4.559553E+04  1.566124E+02  1.654361E-13  2.067952E-14
        94  11 -1.028959E+05 -1.156880E+05 -4.371678E+04  5.205514E+01  1.654361E-13 -6.203855E-14
        94  12 -1.023878E+05 -1.079540E+05 -4.206837E+04  4.577657E+02 -4.135903E-14  5.428373E-14
        94  13 -1.126026E+05 -1.298700E+05 -4.849453E+04  6.546775E+03  0.000000E+00  0.000000E+00
        94  14 -1.112880E+05 -1.233645E+05 -4.693050E+04  5.612883E+03 -8.271806E-14  1.240771E-13
        94  15 -1.098488E+05 -1.170674E+05 -4.538323E+04  5.019792E+03 -1.654361E-13  4.135903E-14
        94  16 -1.209555E+05 -1.331385E+05 -5.081881E+04  1.260906E+04 -8.271806E-14  0.000000E+00
        94  17 -1.186733E+05 -1.276830E+05 -4.927125E+04  1.048604E+04 -4.135903E-14  4.135903E-14
        94  18 -1.159714E+05 -1.221515E+05 -4.762460E+04  8.601803E+03 -9.305782E-14  1.292470E-14
        94  19 -1.036484E+05 -1.243292E+05 -4.559553E+04  1.566124E+02  2.150670E-12 -3.122607E-12
        94  20 -1.028959E+05 -1.156880E+05 -4.371678E+04  5.205514E+01  1.819797E-12 -2.626298E-12
        94  21 -1.023878E+05 -1.079540E+05 -4.206837E+04  4.577657E+02 -2.067952E-13 -2.685752E-12
        94  22 -1.126026E+05 -1.298700E+05 -4.849453E+04  6.546775E+03  6.617445E-13 -3.060568E-12
        94  23 -1.112880E+05 -1.233645E+05 -4.693050E+04  5.612883E+03 -8.271806E-13 -8.271806E-14
        94  24 -1.098488E+05 -1.170674E+05 -4.538323E+04  5.019792E+03  1.695720E-12 -2.357465E-12
        94  25 -1.209555E+05 -1.331385E+05 -5.081881E+04  1.260906E+04  3.308722E-13 -2.812414E-12
        94  26 -1.186733E+05 -1.276830E+05 -4.927125E+04  1.048604E+04  6.617445E-13 -2.564260E-12
        94  27 -1.159714E+05 -1.221515E+05 -4.762460E+04  8.601803E+03  1.033976E-12 -3.081248E-12
        95   1 -1.276691E+05 -1.342619E+05 -5.238620E+04  1.664798E+04 -1.902515E-12  3.432800E-12
        95   2 -1.241193E+05 -1.288994E+05 -5.060374E+04  1.382657E+04  4.963084E-13  2.398824E-12
        95   3 -1.214684E+05 -1.239126E+05 -4.907620E+04  1.155101E+04 -1.773268E-12  2.706432E-12
        95   4 -1.379724E+05 -1.332122E+05 -5.423691E+04  2.138428E+04  0.000000E+00  2.398824E-12
        95   5 -1.334405E+05 -1.284151E+05 -5.237112E+04  1.779579E+04 -8.271806E-14  2.481542E-13
        95   6 -1.297640E+05 -1.239799E+05 -5.074878E+04  1.472436E+04 -4.135903E-14  2.450523E-12
        95   7 -1.478663E+05 -1.301287E+05 -5.559899E+04  2.588623E+04  0.000000E+00  2.646978E-12
        95   8 -1.423612E+05 -1.258421E+05 -5.364065E+04  2.153767E+04 -1.158053E-12  2.646978E-12
        95   9 -1.376698E+05 -1.219035E+05 -5.191466E+04  1.767855E+04 -4.135903E-13  2.626298E-12
        95  10 -1.276691E+05 -1.342619E+05 -5.238620E+04  1.664798E+04  1.654361E-13  0.000000E+00
        95  11 -1.241193E+05 -1.288994E+05 -5.060374E+04  1.382657E+04  0.000000E+00  2.067952E-14
        95  12 -1.214684E+05 -1.239126E+05 -4.907620E+04  1.155101E+04  1.861156E-13  7.754818E-15
        95  13 -1.379724E+05 -1.332122E+05 -5.423691E+04  2.138428E+04  0.000000E+00 -8.271806E-14
        95  14 -1.334405E+05 -1.284151E+05 -5.237112E+04  1.779579E+04 -8.271806E-14  8.271806E-14
        95  15 -1.297640E+05 -1.239799E+05 -5.074878E+04  1.472436E+04 -2.067952E-14  7.237830E-14
        95  16 -1.478663E+05 -1.301287E+05 -5.559899E+04  2.588623E+04  0.000000E+00  6.203855E-14
        95  17 -1.423612E+05 -1.258421E+05 -5.364065E+04  2.153767E+04  1.240771E-13  0.000000E+00
        95  18 -1.376698E+05 -1.219035E+05 -5.191466E+04  1.767855E+04  7.237830E-14 -3.618915E-14
        95  19 -1.276691E+05 -1.342619E+05 -5.238620E+04  1.664798E+04  1.240771E-12 -2.771055E-12
        95  20 -1.241193E+05 -1.288994E+05 -5.060374E+04  1.382657E+04  1.654361E-13 -2.729696E-12
        95  21 -1.214684E+05 -1.239126E+05 -4.907620E+04  1.155101E+04  1.111524E-12 -2.871868E-12
        95  22 -1.379724E+05 -1.332122E+05 -5.423691E+04  2.138428E+04  6.617445E-13 -2.564260E-12
        95  23 -1.334405E+05 -1.284151E+05 -5.237112E+04  1.779579E+04  8.271806E-14 -2.481542E-13
        95  24 -1.297640E+05 -1.239799E+05 -5.074878E+04  1.472436E+04  7.031035E-13 -2.450523E-12
        95  25 -1.478663E+05 -1.301287E+05 -5.559899E+04  2.588623E+04  6.617445E-13 -2.812414E-12
        95  26 -1.423612E+05 -1.258421E+05 -5.364065E+04  2.153767E+04  8.271806E-13 -2.150670E-12
        95  27 -1.376698E+05 -1.219035E+05 -5.191466E+04  1.767855E+04  1.075335E-12 -2.460862E-12
        96   1 -1.426438E+05 -1.547104E+05 -5.947084E+04  3.287910E+04 -2.605619E-12  3.308722E-12
        96   2 -1.348002E+05 -1.457660E+05 -5.611323E+04  2.525659E+04 -1.819797E-12  3.101927E-12
        96   3 -1.296978E+05 -1.378733E+05 -5.351423E+04  1.896710E+04 -3.210495E-12  3.355251E-12
        96   4 -1.587644E+05 -1.483983E+05 -6.143254E+04  3.976589E+04 -6.617445E-13  1.985233E-12
        96   5 -1.488452E+05 -1.421824E+05 -5.820553E+04  3.164747E+04  7.444626E-13 -8.271806E-14
        96   6 -1.412643E+05 -1.371167E+05 -5.567620E+04  2.466227E+04 -1.447566E-12  2.853773E-12
        96   7 -1.746857E+05 -1.407662E+05 -6.309039E+04  4.645812E+04 -1.654361E-12  2.646978E-12
        96   8 -1.625671E+05 -1.366203E+05 -5.983748E+04  3.771988E+04 -6.617445E-13  2.150670E-12
        96   9 -1.523234E+05 -1.335482E+05 -5.717433E+04  2.986784E+04 -1.406207E-12  2.357465E-12
        96  10 -1.426438E+05 -1.547104E+05 -5.947084E+04  3.287910E+04  1.654361E-13  0.000000E+00
        96  11 -1.348002E+05 -1.457660E+05 -5.611323E+04  2.525659E+04  8.271806E-14  2.067952E-14
        96  12 -1.296978E+05 -1.378733E+05 -5.351423E+04  1.896710E+04  4.135903E-14 -2.584939E-14
        96  13 -1.587644E+05 -1.483983E+05 -6.143254E+04  3.976589E+04  1.654361E-13  8.271806E-14
        96  14 -1.488452E+05 -1.421824E+05 -5.820553E+04  3.164747E+04  4.135903E-13  8.271806E-14
        96  15 -1.412643E+05 -1.371167E+05 -5.567620E+04  2.466227E+04 -1.861156E-13  5.169879E-14
        96  16 -1.746857E+05 -1.407662E+05 -6.309039E+04  4.645812E+04 -8.271806E-14  4.135903E-14
        96  17 -1.625671E+05 -1.366203E+05 -5.983748E+04  3.771988E+04 -8.271806E-14  1.033976E-13
        96  18 -1.523234E+05 -1.335482E+05 -5.717433E+04  2.986784E+04  3.101927E-14 -1.033976E-14
        96  19 -1.426438E+05 -1.547104E+05 -5.947084E+04  3.287910E+04  2.605619E-12 -3.308722E-12
        96  20 -1.348002E+05 -1.457660E+05 -5.611323E+04  2.525659E+04  1.158053E-12 -2.440183E-12
        96  21 -1.296978E+05 -1.378733E+05 -5.351423E+04  1.896710E+04  1.887006E-12 -2.693507E-12
        96  22 -1.587644E+05 -1.483983E+05 -6.143254E+04  3.976589E+04  1.323489E-12 -2.316106E-12
        96  23 -1.488452E+05 -1.421824E+05 -5.820553E+04  3.164747E+04 -8.271806E-14 -2.481542E-13
        96  24 -1.412643E+05 -1.371167E+05 -5.567620E+04  2.466227E+04  1.240771E-13 -2.522901E-12
        96  25 -1.746857E+05 -1.407662E+05 -6.309039E+04  4.645812E+04  1.654361E-12 -2.316106E-12
        96  26 -1.625671E+05 -1.366203E+05 -5.983748E+04  3.771988E+04  6.617445E-13 -2.481542E-12
        96  27 -1.523234E+05 -1.335482E+05 -5.717433E+04  2.986784E+04  7.444626E-13 -2.688337E-12
        97   1 -1.724588E+05 -8.246219E+04 -5.098419E+04  1.568249E+04 -7.858216E-13  1.247233E-12
        97   2 -1.667533E+05 -8.696795E+04 -5.074425E+04  1.511024E+04 -2.791735E-13  1.209752E-12
        97   3 -1.610546E+05 -9.144854E+04 -5.050063E+04  1.458567E+04 -7.599722E-13  1.637882E-12
        97   4 -1.704220E+05 -8.027422E+04 -5.013924E+04  1.334892E+04 -4.135903E-13  9.615975E-13
        97   5 -1.650535E+05 -8.478017E+04 -4.996673E+04  1.302301E+04 -3.722313E-13 -5.169879E-15
        97   6 -1.596742E+05 -8.921058E+04 -4.977696E+04  1.273516E+04 -6.824240E-13  1.434641E-12
        97   7 -1.679512E+05 -7.809761E+04 -4.920976E+04  1.090486E+04 -6.617445E-13  1.127034E-12
        97   8 -1.629524E+05 -8.261117E+04 -4.911271E+04  1.085482E+04 -4.963084E-13  1.137373E-12
        97   9 -1.579244E+05 -8.699196E+04 -4.898328E+04  1.083323E+04 -8.271806E-13  1.491510E-12
        97  10 -1.724588E+05 -8.246219E+04 -5.098419E+04  1.568249E+04  0.000000E+00  5.169879E-15
        97  11 -1.667533E+05 -8.696795E+04 -5.074425E+04  1.511024E+04  0.000000E+00 -1.292470E-15
        97  12 -1.610546E+05 -9.144854E+04 -5.050063E+04  1.458567E+04 -2.843433E-14 -1.292470E-14
        97  13 -1.704220E+05 -8.027422E+04 -5.013924E+04  1.334892E+04 -8.271806E-14  0.000000E+00
        97  14 -1.650535E+05 -8.478017E+04 -4.996673E+04  1.302301E+04 -1.240771E-13 -1.033976E-14
        97  15 -1.596742E+05 -8.921058E+04 -4.977696E+04  1.273516E+04 -1.550964E-14  2.584939E-15
        97  16 -1.679512E+05 -7.809761E+04 -4.920976E+04  1.090486E+04  0.000000E+00  0.000000E+00
        97  17 -1.629524E+05 -8.261117E+04 -4.911271E+04  1.085482E+04  2.067952E-14  3.877409E-15
        97  18 -1.579244E+05 -8.699196E+04 -4.898328E+04  1.083323E+04 -3.360421E-14 -2.261822E-15
        97  19 -1.724588E+05 -8.246219E+04 -5.098419E+04  1.568249E+04  7.858216E-13 -1.247233E-12
        97  20 -1.667533E+05 -8.696795E+04 -5.074425E+04  1.511024E+04  6.100457E-13 -1.209752E-12
        97  21 -1.610546E+05 -9.144854E+04 -5.050063E+04  1.458567E+04  1.421717E-12 -1.637882E-12
        97  22 -1.704220E+05 -8.027422E+04 -5.013924E+04  1.334892E+04  4.135903E-13 -9.822770E-13
        97  23 -1.650535E+05 -8.478017E+04 -4.996673E+04  1.302301E+04  4.135903E-14  5.169879E-15
        97  24 -1.596742E+05 -8.921058E+04 -4.977696E+04  1.273516E+04  3.515518E-13 -1.393282E-12
        97  25 -1.679512E+05 -7.809761E+04 -4.920976E+04  1.090486E+04  8.271806E-13 -1.085675E-12
        97  26 -1.629524E+05 -8.261117E+04 -4.911271E+04  1.085482E+04  6.617445E-13 -1.178732E-12
        97  27 -1.579244E+05 -8.699196E+04 -4.898328E+04  1.083323E+04  8.271806E-13 -1.470831E-12
        98   1 -1.577522E+05 -9.384322E+04 -5.031908E+04  1.424365E+04 -1.158053E-12  1.628512E-12
        98   2 -1.525564E+05 -9.742145E+04 -4.999557E+04  1.383250E+04 -3.929108E-13  1.664701E-12
        98   3 -1.474215E+05 -1.010391E+05 -4.969212E+04  1.349675E+04 -1.620757E-12  2.055027E-12
        98   4 -1.566376E+05 -9.156623E+04 -4.964077E+04  1.258219E+04 -8.271806E-13  1.385528E-12
        98   5 -1.516997E+05 -9.525218E+04 -4.939038E+04  1.240153E+04 -1.240771E-13  1.550964E-14
        98   6 -1.468098E+05 -9.894827E+04 -4.915162E+04  1.229145E+04 -1.033976E-13  1.751296E-12
        98   7 -1.551229E+05 -8.938471E+04 -4.890151E+04  1.081321E+04 -6.617445E-13  1.581983E-12
        98   8 -1.504591E+05 -9.318700E+04 -4.872921E+04  1.088584E+04 -8.271806E-13  1.561303E-12
        98   9 -1.458292E+05 -9.696636E+04 -4.855911E+04  1.102440E+04 -6.410650E-13  1.945167E-12
        98  10 -1.577522E+05 -9.384322E+04 -5.031908E+04  1.424365E+04 -2.067952E-14  2.584939E-15
        98  11 -1.525564E+05 -9.742145E+04 -4.999557E+04  1.383250E+04 -4.135903E-14 -5.169879E-15
        98  12 -1.474215E+05 -1.010391E+05 -4.969212E+04  1.349675E+04  5.169879E-15  7.431701E-15
        98  13 -1.566376E+05 -9.156623E+04 -4.964077E+04  1.258219E+04  8.271806E-14  1.033976E-14
        98  14 -1.516997E+05 -9.525218E+04 -4.939038E+04  1.240153E+04 -4.135903E-14 -1.033976E-14
        98  15 -1.468098E+05 -9.894827E+04 -4.915162E+04  1.229145E+04 -8.271806E-14 -9.047288E-15
        98  16 -1.551229E+05 -8.938471E+04 -4.890151E+04  1.081321E+04 -8.271806E-14  0.000000E+00
        98  17 -1.504591E+05 -9.318700E+04 -4.872921E+04  1.088584E+04  2.067952E-14  2.584939E-15
        98  18 -1.458292E+05 -9.696636E+04 -4.855911E+04  1.102440E+04  1.033976E-14  4.846761E-15
        98  19 -1.577522E+05 -9.384322E+04 -5.031908E+04  1.424365E+04  4.963084E-13 -1.628512E-12
        98  20 -1.525564E+05 -9.742145E+04 -4.999557E+04  1.383250E+04  1.385528E-12 -1.623342E-12
        98  21 -1.474215E+05 -1.010391E+05 -4.969212E+04  1.349675E+04  1.289885E-12 -2.055027E-12
        98  22 -1.566376E+05 -9.156623E+04 -4.964077E+04  1.258219E+04  4.963084E-13 -1.468246E-12
        98  23 -1.516997E+05 -9.525218E+04 -4.939038E+04  1.240153E+04  4.549493E-13 -1.550964E-14
        98  24 -1.468098E+05 -9.894827E+04 -4.915162E+04  1.229145E+04  4.342698E-13 -1.771976E-12
        98  25 -1.551229E+05 -8.938471E+04 -4.890151E+04  1.081321E+04  6.617445E-13 -1.581983E-12
        98  26 -1.504591E+05 -9.318700E+04 -4.872921E+04  1.088584E+04  1.158053E-12 -1.581983E-12
        98  27 -1.458292E+05 -9.696636E+04 -4.855911E+04  1.102440E+04  9.719372E-13 -1.914148E-12
        99   1 -1.541173E+05 -8.831391E+04 -4.848625E+04  9.814558E+03 -1.488925E-12  1.541270E-12
        99   2 -1.495664E+05 -9.205405E+04 -4.832408E+04  9.984037E+03 -1.158053E-12  1.502334E-12
        99   3 -1.450634E+05 -9.583187E+04 -4.817905E+04  1.022405E+04 -1.021051E-12  1.886763E-12
        99   4 -1.521624E+05 -8.667358E+04 -4.776720E+04  8.064934E+03 -9.098987E-13  1.360971E-12
        99   5 -1.478301E+05 -9.037525E+04 -4.764107E+04  8.366221E+03  0.000000E+00  0.000000E+00
        99   6 -1.435359E+05 -9.408863E+04 -4.752490E+04  8.726063E+03 -1.075335E-12  1.640467E-12
        99   7 -1.497920E+05 -8.510897E+04 -4.698019E+04  6.220678E+03 -1.158053E-12  1.507020E-12
        99   8 -1.457244E+05 -8.878902E+04 -4.690268E+04  6.672742E+03 -9.926167E-13  1.485048E-12
        99   9 -1.416824E+05 -9.245023E+04 -4.682652E+04  7.169017E+03 -1.654361E-12  1.819474E-12
        99  10 -1.541173E+05 -8.831391E+04 -4.848625E+04  9.814558E+03 -4.135903E-14 -3.877409E-15
        99  11 -1.495664E+05 -9.205405E+04 -4.832408E+04  9.984037E+03  0.000000E+00  1.292470E-15
        99  12 -1.450634E+05 -9.583187E+04 -4.817905E+04  1.022405E+04  3.101927E-14  1.130911E-15
        99  13 -1.521624E+05 -8.667358E+04 -4.776720E+04  8.064934E+03  0.000000E+00 -1.292470E-15
        99  14 -1.478301E+05 -9.037525E+04 -4.764107E+04  8.366221E+03 -8.271806E-14 -1.292470E-15
        99  15 -1.435359E+05 -9.408863E+04 -4.752490E+04  8.726063E+03  6.203855E-14 -4.846761E-16
        99  16 -1.497920E+05 -8.510897E+04 -4.698019E+04  6.220678E+03  2.067952E-14 -6.462349E-16
        99  17 -1.457244E+05 -8.878902E+04 -4.690268E+04  6.672742E+03 -4.135903E-14 -1.292470E-15
        99  18 -1.416824E+05 -9.245023E+04 -4.682652E+04  7.169017E+03  3.101927E-14 -7.270142E-16
        99  19 -1.541173E+05 -8.831391E+04 -4.848625E+04  9.814558E+03  6.617445E-13 -1.561950E-12
        99  20 -1.495664E+05 -9.205405E+04 -4.832408E+04  9.984037E+03  9.926167E-13 -1.523014E-12
        99  21 -1.450634E+05 -9.583187E+04 -4.817905E+04  1.022405E+04  1.021051E-12 -1.866084E-12
        99  22 -1.521624E+05 -8.667358E+04 -4.776720E+04  8.064934E+03  9.098987E-13 -1.355801E-12
        99  23 -1.478301E+05 -9.037525E+04 -4.764107E+04  8.366221E+03  0.000000E+00  0.000000E+00
        99  24 -1.435359E+05 -9.408863E+04 -4.752490E+04  8.726063E+03  1.075335E-12 -1.645637E-12
        99  25 -1.497920E+05 -8.510897E+04 -4.698019E+04  6.220678E+03  9.926167E-13 -1.512190E-12
        99  26 -1.457244E+05 -8.878902E+04 -4.690268E+04  6.672742E+03  9.926167E-13 -1.485048E-12
        99  27 -1.416824E+05 -9.245023E+04 -4.682652E+04  7.169017E+03  1.158053E-12 -1.819474E-12
       100   1 -1.664122E+05 -7.710993E+04 -4.870443E+04  9.558004E+03 -5.376674E-13  1.106071E-12
       100   2 -1.616014E+05 -8.153203E+04 -4.862669E+04  9.641960E+03 -6.772541E-13  1.145370E-12
       100   3 -1.567869E+05 -8.592575E+04 -4.854252E+04  9.762940E+03 -7.341228E-13  1.475203E-12
       100   4 -1.636144E+05 -7.573413E+04 -4.786970E+04  7.317744E+03 -3.308722E-13  9.520655E-13
       100   5 -1.591494E+05 -8.009292E+04 -4.784847E+04  7.590923E+03  0.000000E+00  1.454028E-15
       100   6 -1.546657E+05 -8.437304E+04 -4.780775E+04  7.887496E+03 -7.237830E-13  1.277041E-12
       100   7 -1.603384E+05 -7.434691E+04 -4.693705E+04  4.972700E+03 -4.963084E-13  1.084059E-12
       100   8 -1.562706E+05 -7.865633E+04 -4.698538E+04  5.465039E+03 -6.203855E-13  1.116694E-12
       100   9 -1.521684E+05 -8.282903E+04 -4.699948E+04  5.966052E+03 -9.409179E-13  1.422121E-12
       100  10 -1.664122E+05 -7.710993E+04 -4.870443E+04  9.558004E+03  0.000000E+00  0.000000E+00
       100  11 -1.616014E+05 -8.153203E+04 -4.862669E+04  9.641960E+03 -2.067952E-14  1.938705E-15
       100  12 -1.567869E+05 -8.592575E+04 -4.854252E+04  9.762940E+03 -1.550964E-14 -3.715850E-15
       100  13 -1.636144E+05 -7.573413E+04 -4.786970E+04  7.317744E+03  4.135903E-14 -2.584939E-15
       100  14 -1.591494E+05 -8.009292E+04 -4.784847E+04  7.590923E+03  0.000000E+00  1.292470E-15
       100  15 -1.546657E+05 -8.437304E+04 -4.780775E+04  7.887496E+03  1.033976E-14  1.615587E-15
       100  16 -1.603384E+05 -7.434691E+04 -4.693705E+04  4.972700E+03 -2.067952E-14  0.000000E+00
       100  17 -1.562706E+05 -7.865633E+04 -4.698538E+04  5.465039E+03 -1.033976E-14  1.292470E-15
       100  18 -1.521684E+05 -8.282903E+04 -4.699948E+04  5.966052E+03  2.584939E-15 -1.615587E-16
       100  19 -1.664122E+05 -7.710993E+04 -4.870443E+04  9.558004E+03  7.031035E-13 -1.106071E-12
       100  20 -1.616014E+05 -8.153203E+04 -4.862669E+04  9.641960E+03  8.426902E-13 -1.124691E-12
       100  21 -1.567869E+05 -8.592575E+04 -4.854252E+04  9.762940E+03  5.686867E-13 -1.475203E-12
       100  22 -1.636144E+05 -7.573413E+04 -4.786970E+04  7.317744E+03  4.963084E-13 -9.727450E-13
       100  23 -1.591494E+05 -8.009292E+04 -4.784847E+04  7.590923E+03  1.654361E-13 -1.454028E-15
       100  24 -1.546657E+05 -8.437304E+04 -4.780775E+04  7.887496E+03  7.237830E-13 -1.292550E-12
       100  25 -1.603384E+05 -7.434691E+04 -4.693705E+04  4.972700E+03  4.963084E-13 -1.084059E-12
       100  26 -1.562706E+05 -7.865633E+04 -4.698538E+04  5.465039E+03  6.203855E-13 -1.116694E-12
       100  27 -1.521684E+05 -8.282903E+04 -4.699948E+04  5.966052E+03  7.754818E-13 -1.427290E-12
       101   1 -2.489625E+05 -1.483669E+05 -7.946588E+04  3.692663E+04  3.970467E-12 -5.293956E-12
       101   2 -2.426251E+05 -1.405709E+05 -7.663921E+04  3.735772E+04  4.632211E-12 -2.382280E-11
       101   3 -2.355278E+05 -1.320644E+05 -7.351843E+04  3.733924E+04 -8.933551E-12 -1.720536E-11
       101   4 -2.555001E+05 -1.525379E+05 -8.160760E+04  4.139494E+04  5.293956E-12 -1.058791E-11
       101   5 -2.505155E+05 -1.447020E+05 -7.904350E+04  4.249057E+04  0.000000E+00 -5.293956E-12
       101   6 -2.446098E+05 -1.361031E+05 -7.614258E+04  4.307509E+04 -3.308722E-12 -9.264423E-12
       101   7 -2.620390E+05 -1.573005E+05 -8.386791E+04  4.617352E+04  5.293956E-12 -2.117582E-11
       101   8 -2.583783E+05 -1.493140E+05 -8.153847E+04  4.787039E+04  2.646978E-12 -4.235165E-11
       101   9 -2.536483E+05 -1.405299E+05 -7.883563E+04  4.900659E+04 -1.058791E-11  2.646978E-12
       101  10 -2.489625E+05 -1.483669E+05 -7.946588E+04  3.692663E+04 -1.323489E-12  0.000000E+00
       101  11 -2.426251E+05 -1.405709E+05 -7.663921E+04  3.735772E+04  6.617445E-13 -5.293956E-12
       101  12 -2.355278E+05 -1.320644E+05 -7.351843E+04  3.733924E+04  0.000000E+00 -1.985233E-12
       101  13 -2.555001E+05 -1.525379E+05 -8.160760E+04  4.139494E+04  0.000000E+00  0.000000E+00
       101  14 -2.505155E+05 -1.447020E+05 -7.904350E+04  4.249057E+04  1.323489E-12 -2.646978E-12
       101  15 -2.446098E+05 -1.361031E+05 -7.614258E+04  4.307509E+04 -3.639595E-12  0.000000E+00
       101  16 -2.620390E+05 -1.573005E+05 -8.386791E+04  4.617352E+04  0.000000E+00  0.000000E+00
       101  17 -2.583783E+05 -1.493140E+05 -8.153847E+04  4.787039E+04  4.632211E-12  2.646978E-12
       101  18 -2.536483E+05 -1.405299E+05 -7.883563E+04  4.900659E+04  8.271806E-13 -3.308722E-13
       101  19 -2.489625E+05 -1.483669E+05 -7.946588E+04  3.692663E+04 -3.970467E-12  5.293956E-12
       101  20 -2.426251E+05 -1.405709E+05 -7.663921E+04  3.735772E+04 -1.522012E-11 -1.852885E-11
       101  21 -2.355278E+05 -1.320644E+05 -7.351843E+04  3.733924E+04 -1.224227E-11  1.720536E-11
       101  22 -2.555001E+05 -1.525379E+05 -8.160760E+04  4.139494E+04 -5.293956E-12  3.176374E-11
       101  23 -2.505155E+05 -1.447020E+05 -7.904350E+04  4.249057E+04  0.000000E+00 -1.588187E-11
       101  24 -2.446098E+05 -1.361031E+05 -7.614258E+04  4.307509E+04  3.308722E-12  9.264423E-12
       101  25 -2.620390E+05 -1.573005E+05 -8.386791E+04  4.617352E+04 -5.293956E-12  2.117582E-11
       101  26 -2.583783E+05 -1.493140E+05 -8.153847E+04  4.787039E+04 -2.646978E-12  0.000000E+00
       101  27 -2.536483E+05 -1.405299E+05 -7.883563E+04  4.900659E+04  0.000000E+00 -4.499863E-11
       102   1 -2.313329E+05 -1.269890E+05 -7.166439E+04  3.674746E+04 -5.293956E-12 -1.058791E-11
       102   2 -2.229119E+05 -1.202780E+05 -6.863799E+04  3.519977E+04  7.940934E-12 -1.985233E-11
       102   3 -2.124188E+05 -1.122512E+05 -6.493401E+04  3.270278E+04  1.009160E-11 -7.345364E-11
       102   4 -2.411317E+05 -1.307494E+05 -7.437623E+04  4.261104E+04  0.000000E+00  1.058791E-11
       102   5 -2.340785E+05 -1.232991E+05 -7.147552E+04  4.090497E+04 -7.940934E-12 -1.588187E-11
       102   6 -2.249086E+05 -1.145880E+05 -6.789934E+04  3.827651E+04 -1.389663E-11 -2.514629E-11
       102   7 -2.508017E+05 -1.347885E+05 -7.711803E+04  4.875571E+04  5.293956E-12  0.000000E+00
       102   8 -2.451369E+05 -1.266395E+05 -7.435528E+04  4.689482E+04  5.293956E-12  1.058791E-11
       102   9 -2.373408E+05 -1.173005E+05 -7.092827E+04  4.415328E+04 -1.455838E-11 -5.558654E-11
       102  10 -2.313329E+05 -1.269890E+05 -7.166439E+04  3.674746E+04 -3.970467E-12  0.000000E+00
       102  11 -2.229119E+05 -1.202780E+05 -6.863799E+04  3.519977E+04  6.617445E-13  1.323489E-12
       102  12 -2.124188E+05 -1.122512E+05 -6.493401E+04  3.270278E+04 -4.963084E-13  1.654361E-12
       102  13 -2.411317E+05 -1.307494E+05 -7.437623E+04  4.261104E+04  0.000000E+00  5.293956E-12
       102  14 -2.340785E+05 -1.232991E+05 -7.147552E+04  4.090497E+04  1.323489E-12 -5.293956E-12
       102  15 -2.249086E+05 -1.145880E+05 -6.789934E+04  3.827651E+04  1.985233E-12  1.323489E-12
       102  16 -2.508017E+05 -1.347885E+05 -7.711803E+04  4.875571E+04  0.000000E+00  5.293956E-12
       102  17 -2.451369E+05 -1.266395E+05 -7.435528E+04  4.689482E+04  6.617445E-13  1.323489E-12
       102  18 -2.373408E+05 -1.173005E+05 -7.092827E+04  4.415328E+04 -4.963084E-13  2.316106E-12
       102  19 -2.313329E+05 -1.269890E+05 -7.166439E+04  3.674746E+04  5.293956E-12 -1.058791E-11
       102  20 -2.229119E+05 -1.202780E+05 -6.863799E+04  3.519977E+04 -7.940934E-12  1.985233E-11
       102  21 -2.124188E+05 -1.122512E+05 -6.493401E+04  3.270278E+04 -1.009160E-11  5.227781E-11
       102  22 -2.411317E+05 -1.307494E+05 -7.437623E+04  4.261104E+04  2.117582E-11 -1.058791E-11
       102  23 -2.340785E+05 -1.232991E+05 -7.147552E+04  4.090497E+04 -1.323489E-11 -6.882143E-11
       102  24 -2.249086E+05 -1.145880E+05 -6.789934E+04  3.827651E+04 -1.786710E-11  3.970467E-12
       102  25 -2.508017E+05 -1.347885E+05 -7.711803E+04  4.875571E+04 -5.293956E-12  0.000000E+00
       102  26 -2.451369E+05 -1.266395E+05 -7.435528E+04  4.689482E+04  1.588187E-11  1.058791E-11
       102  27 -2.373408E+05 -1.173005E+05 -7.092827E+04  4.415328E+04  3.970467E-12  9.793818E-11
       103   1 -2.568112E+05 -1.375025E+05 -7.886275E+04  5.262917E+04  2.448455E-11 -1.058791E-11
       103   2 -2.520812E+05 -1.289751E+05 -7.621125E+04  5.077053E+04 -2.646978E-12  2.249931E-11
       103   3 -2.451249E+05 -1.189750E+05 -7.281998E+04  4.786121E+04  1.389663E-11  4.532950E-11
       103   4 -2.678284E+05 -1.423263E+05 -8.203093E+04  5.957103E+04  1.058791E-11  2.117582E-11
       103   5 -2.646945E+05 -1.328735E+05 -7.951360E+04  5.765851E+04  1.852885E-11  4.235165E-11
       103   6 -2.594106E+05 -1.220497E+05 -7.629207E+04  5.475859E+04  1.124966E-11 -3.044025E-11
       103   7 -2.786403E+05 -1.476394E+05 -8.525596E+04  6.691513E+04  0.000000E+00  3.176374E-11
       103   8 -2.770795E+05 -1.373551E+05 -8.288693E+04  6.496348E+04  2.117582E-11 -2.117582E-11
       103   9 -2.734721E+05 -1.258170E+05 -7.985782E+04  6.210052E+04  4.632211E-12 -3.705769E-11
       103  10 -2.568112E+05 -1.375025E+05 -7.886275E+04  5.262917E+04  0.000000E+00  0.000000E+00
       103  11 -2.520812E+05 -1.289751E+05 -7.621125E+04  5.077053E+04 -1.985233E-12 -5.293956E-12
       103  12 -2.451249E+05 -1.189750E+05 -7.281998E+04  4.786121E+04 -4.963084E-13  2.316106E-12
       103  13 -2.678284E+05 -1.423263E+05 -8.203093E+04  5.957103E+04 -5.293956E-12 -5.293956E-12
       103  14 -2.646945E+05 -1.328735E+05 -7.951360E+04  5.765851E+04  0.000000E+00  2.646978E-12
       103  15 -2.594106E+05 -1.220497E+05 -7.629207E+04  5.475859E+04 -1.654361E-12  5.955700E-12
       103  16 -2.786403E+05 -1.476394E+05 -8.525596E+04  6.691513E+04  0.000000E+00  0.000000E+00
       103  17 -2.770795E+05 -1.373551E+05 -8.288693E+04  6.496348E+04 -4.632211E-12  0.000000E+00
       103  18 -2.734721E+05 -1.258170E+05 -7.985782E+04  6.210052E+04  1.654361E-13 -2.316106E-12
       103  19 -2.568112E+05 -1.375025E+05 -7.886275E+04  5.262917E+04 -3.308722E-12 -1.058791E-11
       103  20 -2.520812E+05 -1.289751E+05 -7.621125E+04  5.077053E+04 -7.940934E-12 -2.249931E-11
       103  21 -2.451249E+05 -1.189750E+05 -7.281998E+04  4.786121E+04  7.279189E-12 -2.977850E-12
       103  22 -2.678284E+05 -1.423263E+05 -8.203093E+04  5.957103E+04 -1.058791E-11 -2.117582E-11
       103  23 -2.646945E+05 -1.328735E+05 -7.951360E+04  5.765851E+04 -7.940934E-12 -4.235165E-11
       103  24 -2.594106E+05 -1.220497E+05 -7.629207E+04  5.475859E+04 -1.124966E-11  3.044025E-11
       103  25 -2.786403E+05 -1.476394E+05 -8.525596E+04  6.691513E+04  1.058791E-11 -1.058791E-11
       103  26 -2.770795E+05 -1.373551E+05 -8.288693E+04  6.496348E+04 -2.117582E-11  4.235165E-11
       103  27 -2.734721E+05 -1.258170E+05 -7.985782E+04  6.210052E+04 -1.522012E-11  1.588187E-11
       104   1 -2.663113E+05 -1.609114E+05 -8.544454E+04  4.933878E+04  2.713152E-11 -1.985233E-11
       104   2 -2.633828E+05 -1.526298E+05 -8.320252E+04  5.143166E+04  6.617445E-12  3.838118E-11
       104   3 -2.592643E+05 -1.432624E+05 -8.050535E+04  5.277327E+04  7.361907E-12 -2.382280E-11
       104   4 -2.741642E+05 -1.678129E+05 -8.839542E+04  5.494857E+04 -7.940934E-12 -1.058791E-11
       104   5 -2.723043E+05 -1.584291E+05 -8.614669E+04  5.752999E+04 -1.323489E-11  2.646978E-11
       104   6 -2.694011E+05 -1.481379E+05 -8.350779E+04  5.948587E+04 -1.389663E-11 -5.161607E-11
       104   7 -2.821067E+05 -1.755564E+05 -9.153263E+04  6.103616E+04  1.058791E-11 -2.117582E-11
       104   8 -2.812678E+05 -1.652733E+05 -8.930822E+04  6.408550E+04  2.646978E-12 -3.176374E-11
       104   9 -2.795116E+05 -1.542419E+05 -8.675070E+04  6.661789E+04  9.264423E-12 -2.382280E-11
       104  10 -2.663113E+05 -1.609114E+05 -8.544454E+04  4.933878E+04  6.617445E-13  0.000000E+00
       104  11 -2.633828E+05 -1.526298E+05 -8.320252E+04  5.143166E+04  1.985233E-12 -7.940934E-12
       104  12 -2.592643E+05 -1.432624E+05 -8.050535E+04  5.277327E+04 -9.926167E-13  3.639595E-12
       104  13 -2.741642E+05 -1.678129E+05 -8.839542E+04  5.494857E+04  2.646978E-12  0.000000E+00
       104  14 -2.723043E+05 -1.584291E+05 -8.614669E+04  5.752999E+04  0.000000E+00 -1.058791E-11
       104  15 -2.694011E+05 -1.481379E+05 -8.350779E+04  5.948587E+04 -2.646978E-12  2.646978E-12
       104  16 -2.821067E+05 -1.755564E+05 -9.153263E+04  6.103616E+04  1.985233E-12  0.000000E+00
       104  17 -2.812678E+05 -1.652733E+05 -8.930822E+04  6.408550E+04 -1.985233E-12 -1.058791E-11
       104  18 -2.795116E+05 -1.542419E+05 -8.675070E+04  6.661789E+04  1.819797E-12  1.654361E-12
       104  19 -2.663113E+05 -1.609114E+05 -8.544454E+04  4.933878E+04 -2.713152E-11  1.985233E-11
       104  20 -2.633828E+05 -1.526298E+05 -8.320252E+04  5.143166E+04  3.970467E-12  2.514629E-11
       104  21 -2.592643E+05 -1.432624E+05 -8.050535E+04  5.277327E+04 -2.853773E-11  2.382280E-11
       104  22 -2.741642E+05 -1.678129E+05 -8.839542E+04  5.494857E+04  7.940934E-12 -1.058791E-11
       104  23 -2.723043E+05 -1.584291E+05 -8.614669E+04  5.752999E+04 -7.940934E-12 -4.764560E-11
       104  24 -2.694011E+05 -1.481379E+05 -8.350779E+04  5.948587E+04 -7.279189E-12  9.264423E-12
       104  25 -2.821067E+05 -1.755564E+05 -9.153263E+04  6.103616E+04  0.000000E+00  0.000000E+00
       104  26 -2.812678E+05 -1.652733E+05 -8.930822E+04  6.408550E+04 -1.323489E-11  1.058791E-11
       104  27 -2.795116E+05 -1.542419E+05 -8.675070E+04  6.661789E+04 -9.264423E-12  4.499863E-11
       105   1 -2.861927E+05 -2.203203E+05 -1.013026E+05  1.388513E+05 -4.963084E-13 -7.279189E-12
       105   2 -2.896139E+05 -2.376194E+05 -1.054467E+05  1.349841E+05  1.323489E-12 -9.926167E-12
       105   3 -2.939651E+05 -2.544919E+05 -1.096914E+05  1.322753E+05 -2.233388E-12 -3.101927E-12
       105   4 -3.114096E+05 -2.167706E+05 -1.056360E+05  1.430197E+05  5.293956E-12  2.646978E-12
       105   5 -3.141343E+05 -2.308085E+05 -1.089886E+05  1.399245E+05 -1.323489E-12 -6.617445E-13
       105   6 -3.178494E+05 -2.447875E+05 -1.125274E+05  1.378618E+05 -2.316106E-12  3.970467E-12
       105   7 -3.353526E+05 -2.118064E+05 -1.094318E+05  1.481205E+05  0.000000E+00  2.646978E-12
       105   8 -3.376576E+05 -2.229262E+05 -1.121168E+05  1.456606E+05  3.970467E-12 -1.058791E-11
       105   9 -3.409806E+05 -2.342857E+05 -1.150532E+05  1.441326E+05  3.474159E-12 -4.963084E-12
       105  10 -2.861927E+05 -2.203203E+05 -1.013026E+05  1.388513E+05  0.000000E+00 -3.308722E-13
       105  11 -2.896139E+05 -2.376194E+05 -1.054467E+05  1.349841E+05 -1.654361E-13  9.926167E-13
       105  12 -2.939651E+05 -2.544919E+05 -1.096914E+05  1.322753E+05 -4.963084E-13  7.858216E-13
       105  13 -3.114096E+05 -2.167706E+05 -1.056360E+05  1.430197E+05  0.000000E+00  0.000000E+00
       105  14 -3.141343E+05 -2.308085E+05 -1.089886E+05  1.399245E+05  3.308722E-13  2.646978E-12
       105  15 -3.178494E+05 -2.447875E+05 -1.125274E+05  1.378618E+05  5.790264E-13  6.617445E-13
       105  16 -3.353526E+05 -2.118064E+05 -1.094318E+05  1.481205E+05 -3.308722E-13 -1.323489E-12
       105  17 -3.376576E+05 -2.229262E+05 -1.121168E+05  1.456606E+05 -3.308722E-13  3.308722E-13
       105  18 -3.409806E+05 -2.342857E+05 -1.150532E+05  1.441326E+05 -1.654361E-13 -8.271806E-14
       105  19 -2.861927E+05 -2.203203E+05 -1.013026E+05  1.388513E+05 -2.150670E-12 -3.308722E-12
       105  20 -2.896139E+05 -2.376194E+05 -1.054467E+05  1.349841E+05 -1.323489E-12 -5.955700E-12
       105  21 -2.939651E+05 -2.544919E+05 -1.096914E+05  1.322753E+05  2.233388E-12  3.101927E-12
       105  22 -3.114096E+05 -2.167706E+05 -1.056360E+05  1.430197E+05 -2.646978E-12  2.646978E-12
       105  23 -3.141343E+05 -2.308085E+05 -1.089886E+05  1.399245E+05  3.970467E-12 -4.632211E-12
       105  24 -3.178494E+05 -2.447875E+05 -1.125274E+05  1.378618E+05 -3.308722E-13 -3.970467E-12
       105  25 -3.353526E+05 -2.118064E+05 -1.094318E+05  1.481205E+05 -5.293956E-12  0.000000E+00
       105  26 -3.376576E+05 -2.229262E+05 -1.121168E+05  1.456606E+05 -3.970467E-12  5.293956E-12
       105  27 -3.409806E+05 -2.342857E+05 -1.150532E+05  1.441326E+05 -8.271806E-13  4.963084E-12
       106   1 -2.940197E+05 -2.659898E+05 -1.120019E+05  1.267970E+05  3.308722E-13  6.617445E-12
       106   2 -2.971276E+05 -2.805016E+05 -1.155258E+05  1.157688E+05 -1.488925E-12 -1.025704E-11
       106   3 -2.995923E+05 -2.890001E+05 -1.177185E+05  1.057766E+05  1.985233E-12 -9.512577E-12
       106   4 -3.164071E+05 -2.542129E+05 -1.141240E+05  1.345377E+05  6.617445E-12  0.000000E+00
       106   5 -3.175628E+05 -2.692775E+05 -1.173681E+05  1.256514E+05 -1.323489E-12 -1.323489E-12
       106   6 -3.181768E+05 -2.785064E+05 -1.193366E+05  1.176711E+05  2.481542E-12 -6.286573E-12
       106   7 -3.393843E+05 -2.432577E+05 -1.165284E+05  1.414972E+05  2.646978E-12  0.000000E+00
       106   8 -3.387115E+05 -2.588632E+05 -1.195149E+05  1.347041E+05  2.646978E-12 -5.293956E-12
       106   9 -3.375853E+05 -2.688027E+05 -1.212776E+05  1.286963E+05  9.926167E-13  5.955700E-12
       106  10 -2.940197E+05 -2.659898E+05 -1.120019E+05  1.267970E+05 -3.308722E-13 -6.617445E-13
       106  11 -2.971276E+05 -2.805016E+05 -1.155258E+05  1.157688E+05 -3.308722E-13 -3.308722E-13
       106  12 -2.995923E+05 -2.890001E+05 -1.177185E+05  1.057766E+05 -2.895132E-13 -1.158053E-12
       106  13 -3.164071E+05 -2.542129E+05 -1.141240E+05  1.345377E+05 -6.617445E-13 -1.323489E-12
       106  14 -3.175628E+05 -2.692775E+05 -1.173681E+05  1.256514E+05  9.926167E-13 -3.308722E-12
       106  15 -3.181768E+05 -2.785064E+05 -1.193366E+05  1.176711E+05  1.488925E-12 -1.654361E-13
       106  16 -3.393843E+05 -2.432577E+05 -1.165284E+05  1.414972E+05 -6.617445E-13  0.000000E+00
       106  17 -3.387115E+05 -2.588632E+05 -1.195149E+05  1.347041E+05  1.654361E-13 -1.654361E-12
       106  18 -3.375853E+05 -2.688027E+05 -1.212776E+05  1.286963E+05 -8.271806E-14 -7.444626E-13
       106  19 -2.940197E+05 -2.659898E+05 -1.120019E+05  1.267970E+05 -2.977850E-12 -1.323489E-12
       106  20 -2.971276E+05 -2.805016E+05 -1.155258E+05  1.157688E+05 -3.805031E-12 -3.308722E-13
       106  21 -2.995923E+05 -2.890001E+05 -1.177185E+05  1.057766E+05 -1.985233E-12 -1.075335E-12
       106  22 -3.164071E+05 -2.542129E+05 -1.141240E+05  1.345377E+05 -1.323489E-12  0.000000E+00
       106  23 -3.175628E+05 -2.692775E+05 -1.173681E+05  1.256514E+05  6.617445E-12 -9.264423E-12
       106  24 -3.181768E+05 -2.785064E+05 -1.193366E+05  1.176711E+05 -5.128520E-12  1.158053E-11
       106  25 -3.393843E+05 -2.432577E+05 -1.165284E+05  1.414972E+05  0.000000E+00 -5.293956E-12
       106  26 -3.387115E+05 -2.588632E+05 -1.195149E+05  1.347041E+05 -5.293956E-12  1.058791E-11
       106  27 -3.375853E+05 -2.688027E+05 -1.212776E+05  1.286963E+05 -3.639595E-12 -5.955700E-12
       107   1 -3.530768E+05 -2.385237E+05 -1.183201E+05  1.448519E+05  2.646978E-12 -9.926167E-13
       107   2 -3.513879E+05 -2.520802E+05 -1.206936E+05  1.392442E+05 -2.481542E-12  7.775498E-12
       107   3 -3.497288E+05 -2.624772E+05 -1.224412E+05  1.343360E+05 -1.240771E-12 -8.395883E-12
       107   4 -3.763433E+05 -2.290426E+05 -1.210772E+05  1.501816E+05  5.293956E-12  1.323489E-12
       107   5 -3.742469E+05 -2.430172E+05 -1.234528E+05  1.460945E+05 -2.646978E-12  1.323489E-12
       107   6 -3.722657E+05 -2.541623E+05 -1.252856E+05  1.424982E+05  6.452009E-12  3.474159E-12
       107   7 -3.994826E+05 -2.199513E+05 -1.238868E+05  1.552813E+05  5.293956E-12 -5.293956E-12
       107   8 -3.972523E+05 -2.343846E+05 -1.263274E+05  1.525658E+05  1.323489E-12 -6.617445E-12
       107   9 -3.951768E+05 -2.462603E+05 -1.282874E+05  1.501835E+05  3.639595E-12 -3.308722E-13
       107  10 -3.530768E+05 -2.385237E+05 -1.183201E+05  1.448519E+05  3.308722E-13  0.000000E+00
       107  11 -3.513879E+05 -2.520802E+05 -1.206936E+05  1.392442E+05 -1.654361E-13 -9.926167E-13
       107  12 -3.497288E+05 -2.624772E+05 -1.224412E+05  1.343360E+05  2.481542E-13  9.098987E-13
       107  13 -3.763433E+05 -2.290426E+05 -1.210772E+05  1.501816E+05  0.000000E+00  0.000000E+00
       107  14 -3.742469E+05 -2.430172E+05 -1.234528E+05  1.460945E+05 -2.646978E-12 -1.985233E-12
       107  15 -3.722657E+05 -2.541623E+05 -1.252856E+05  1.424982E+05  2.481542E-13 -3.308722E-13
       107  16 -3.994826E+05 -2.199513E+05 -1.238868E+05  1.552813E+05  3.308722E-13  1.323489E-12
       107  17 -3.972523E+05 -2.343846E+05 -1.263274E+05  1.525658E+05 -3.308722E-13 -1.985233E-12
       107  18 -3.951768E+05 -2.462603E+05 -1.282874E+05  1.501835E+05  9.098987E-13  5.790264E-13
       107  19 -3.530768E+05 -2.385237E+05 -1.183201E+05  1.448519E+05 -5.293956E-12  6.286573E-12
       107  20 -3.513879E+05 -2.520802E+05 -1.206936E+05  1.392442E+05  2.481542E-12 -7.775498E-12
       107  21 -3.497288E+05 -2.624772E+05 -1.224412E+05  1.343360E+05  1.240771E-12  8.395883E-12
       107  22 -3.763433E+05 -2.290426E+05 -1.210772E+05  1.501816E+05 -5.293956E-12  3.970467E-12
       107  23 -3.742469E+05 -2.430172E+05 -1.234528E+05  1.460945E+05  7.940934E-12 -6.617445E-12
       107  24 -3.722657E+05 -2.541623E+05 -1.252856E+05  1.424982E+05 -6.452009E-12  7.113753E-12
       107  25 -3.994826E+05 -2.199513E+05 -1.238868E+05  1.552813E+05 -5.293956E-12  5.293956E-12
       107  26 -3.972523E+05 -2.343846E+05 -1.263274E+05  1.525658E+05 -3.970467E-12  6.617445E-12
       107  27 -3.951768E+05 -2.462603E+05 -1.282874E+05  1.501835E+05 -3.639595E-12 -4.963084E-12
       108   1 -3.484440E+05 -2.075625E+05 -1.112013E+05  1.507629E+05 -2.150670E-12 -3.308722E-13
       108   2 -3.507073E+05 -2.185603E+05 -1.138535E+05  1.485167E+05  6.617445E-13 -5.293956E-12
       108   3 -3.539685E+05 -2.298498E+05 -1.167637E+05  1.471242E+05  2.378144E-12  6.327932E-12
       108   4 -3.710369E+05 -2.017973E+05 -1.145668E+05  1.549179E+05 -1.985233E-12  2.646978E-12
       108   5 -3.734293E+05 -2.112504E+05 -1.169359E+05  1.529310E+05 -3.308722E-12  3.970467E-12
       108   6 -3.768257E+05 -2.211990E+05 -1.196049E+05  1.517047E+05  5.459392E-12 -9.098987E-12
       108   7 -3.935711E+05 -1.954920E+05 -1.178126E+05  1.592921E+05  3.970467E-12  2.646978E-12
       108   8 -3.963046E+05 -2.035881E+05 -1.199785E+05  1.574789E+05  1.323489E-12 -2.646978E-12
       108   9 -4.000204E+05 -2.123450E+05 -1.224731E+05  1.563508E+05  2.977850E-12  8.933551E-12
       108  10 -3.484440E+05 -2.075625E+05 -1.112013E+05  1.507629E+05  3.308722E-13 -6.617445E-13
       108  11 -3.507073E+05 -2.185603E+05 -1.138535E+05  1.485167E+05 -1.323489E-12  9.926167E-13
       108  12 -3.539685E+05 -2.298498E+05 -1.167637E+05  1.471242E+05 -6.203855E-13  7.444626E-13
       108  13 -3.710369E+05 -2.017973E+05 -1.145668E+05  1.549179E+05  0.000000E+00  6.617445E-13
       108  14 -3.734293E+05 -2.112504E+05 -1.169359E+05  1.529310E+05  3.308722E-13  6.617445E-13
       108  15 -3.768257E+05 -2.211990E+05 -1.196049E+05  1.517047E+05  8.271806E-13 -3.308722E-13
       108  16 -3.935711E+05 -1.954920E+05 -1.178126E+05  1.592921E+05 -6.617445E-13  3.308722E-13
       108  17 -3.963046E+05 -2.035881E+05 -1.199785E+05  1.574789E+05 -3.308722E-13  8.271806E-13
       108  18 -4.000204E+05 -2.123450E+05 -1.224731E+05  1.563508E+05 -4.549493E-13  5.376674E-13
       108  19 -3.484440E+05 -2.075625E+05 -1.112013E+05  1.507629E+05  2.150670E-12  3.308722E-13
       108  20 -3.507073E+05 -2.185603E+05 -1.138535E+05  1.485167E+05 -6.617445E-13  0.000000E+00
       108  21 -3.539685E+05 -2.298498E+05 -1.167637E+05  1.471242E+05 -7.672100E-12 -1.033976E-12
       108  22 -3.710369E+05 -2.017973E+05 -1.145668E+05  1.549179E+05 -6.617445E-13 -2.646978E-12
       108  23 -3.734293E+05 -2.112504E+05 -1.169359E+05  1.529310E+05  3.308722E-12 -1.323489E-12
       108  24 -3.768257E+05 -2.211990E+05 -1.196049E+05  1.517047E+05 -1.654361E-13  3.805031E-12
       108  25 -3.935711E+05 -1.954920E+05 -1.178126E+05  1.592921E+05 -1.323489E-12  0.000000E+00
       108  26 -3.963046E+05 -2.035881E+05 -1.199785E+05  1.574789E+05 -1.323489E-12  2.646978E-12
       108  27 -4.000204E+05 -2.123450E+05 -1.224731E+05  1.563508E+05 -2.977850E-12 -3.639595E-12
       109   1 -1.157346E+05 -9.059606E+04 -4.126614E+04 -4.866580E+03 -1.695720E-12  1.959384E-12
       109   2 -1.196663E+05 -8.740818E+04 -4.141490E+04 -5.622095E+03 -1.499265E-12  1.737079E-12
       109   3 -1.238289E+05 -8.435910E+04 -4.163759E+04 -6.271235E+03 -1.291177E-12  1.681503E-12
       109   4 -1.157320E+05 -9.254724E+04 -4.165586E+04 -2.907935E+03 -1.364848E-12  1.819797E-12
       109   5 -1.199842E+05 -8.924150E+04 -4.184514E+04 -3.678349E+03 -8.271806E-14 -8.271806E-14
       109   6 -1.245617E+05 -8.613294E+04 -4.213892E+04 -4.300882E+03 -9.874469E-13  1.587153E-12
       109   7 -1.158138E+05 -9.467085E+04 -4.209692E+04 -1.012458E+03 -1.737079E-12  2.233388E-12
       109   8 -1.203534E+05 -9.128776E+04 -4.232823E+04 -1.784938E+03 -1.199412E-12  1.861156E-12
       109   9 -1.252931E+05 -8.815078E+04 -4.268878E+04 -2.375446E+03 -1.064995E-12  1.876666E-12
       109  10 -1.157346E+05 -9.059606E+04 -4.126614E+04 -4.866580E+03 -1.033976E-14  1.550964E-14
       109  11 -1.196663E+05 -8.740818E+04 -4.141490E+04 -5.622095E+03 -1.550964E-14 -5.169879E-15
       109  12 -1.238289E+05 -8.435910E+04 -4.163759E+04 -6.271235E+03 -3.877409E-15  5.816114E-15
       109  13 -1.157320E+05 -9.254724E+04 -4.165586E+04 -2.907935E+03 -4.135903E-14  0.000000E+00
       109  14 -1.199842E+05 -8.924150E+04 -4.184514E+04 -3.678349E+03  0.000000E+00 -3.101927E-14
       109  15 -1.245617E+05 -8.613294E+04 -4.213892E+04 -4.300882E+03  4.135903E-14  1.292470E-14
       109  16 -1.158138E+05 -9.467085E+04 -4.209692E+04 -1.012458E+03  0.000000E+00  0.000000E+00
       109  17 -1.203534E+05 -9.128776E+04 -4.232823E+04 -1.784938E+03  5.169879E-15  0.000000E+00
       109  18 -1.252931E+05 -8.815078E+04 -4.268878E+04 -2.375446E+03  2.067952E-14 -6.462349E-16
       109  19 -1.157346E+05 -9.059606E+04 -4.126614E+04 -4.866580E+03  1.613002E-12 -2.042102E-12
       109  20 -1.196663E+05 -8.740818E+04 -4.141490E+04 -5.622095E+03  1.416547E-12 -1.737079E-12
       109  21 -1.238289E+05 -8.435910E+04 -4.163759E+04 -6.271235E+03  1.373895E-12 -1.722862E-12
       109  22 -1.157320E+05 -9.254724E+04 -4.165586E+04 -2.907935E+03  1.613002E-12 -1.778438E-12
       109  23 -1.199842E+05 -8.924150E+04 -4.184514E+04 -3.678349E+03  8.271806E-14  8.271806E-14
       109  24 -1.245617E+05 -8.613294E+04 -4.213892E+04 -4.300882E+03  1.152883E-12 -1.628512E-12
       109  25 -1.158138E+05 -9.467085E+04 -4.209692E+04 -1.012458E+03  1.571643E-12 -2.233388E-12
       109  26 -1.203534E+05 -9.128776E+04 -4.232823E+04 -1.784938E+03  1.695720E-12 -1.861156E-12
       109  27 -1.252931E+05 -8.815078E+04 -4.268878E+04 -2.375446E+03  1.561303E-12 -1.918025E-12
       110   1 -1.265149E+05 -8.236559E+04 -4.177610E+04 -6.535517E+03 -1.292470E-12  1.607832E-12
       110   2 -1.309812E+05 -7.892463E+04 -4.198117E+04 -6.833138E+03 -7.703119E-13  1.385528E-12
       110   3 -1.353704E+05 -7.543580E+04 -4.216124E+04 -7.166022E+03 -9.654749E-13  1.395867E-12
       110   4 -1.268410E+05 -8.452658E+04 -4.227351E+04 -4.561066E+03 -1.282130E-12  1.550964E-12
       110   5 -1.304764E+05 -8.145555E+04 -4.238640E+04 -4.970322E+03  0.000000E+00 -3.101927E-14
       110   6 -1.342304E+05 -7.852274E+04 -4.255063E+04 -5.300798E+03 -9.098987E-13  1.279545E-12
       110   7 -1.274474E+05 -8.647058E+04 -4.278360E+04 -2.670367E+03 -9.926167E-13  1.778438E-12
       110   8 -1.300943E+05 -8.399361E+04 -4.281758E+04 -3.182398E+03 -9.098987E-13  1.468246E-12
       110   9 -1.331266E+05 -8.194233E+04 -4.301378E+04 -3.451033E+03 -1.540624E-12  1.509605E-12
       110  10 -1.265149E+05 -8.236559E+04 -4.177610E+04 -6.535517E+03  1.033976E-14  5.169879E-15
       110  11 -1.309812E+05 -7.892463E+04 -4.198117E+04 -6.833138E+03 -1.550964E-14 -1.292470E-14
       110  12 -1.353704E+05 -7.543580E+04 -4.216124E+04 -7.166022E+03  1.550964E-14  7.754818E-15
       110  13 -1.268410E+05 -8.452658E+04 -4.227351E+04 -4.561066E+03 -4.135903E-14  1.033976E-14
       110  14 -1.304764E+05 -8.145555E+04 -4.238640E+04 -4.970322E+03 -4.135903E-14  1.033976E-14
       110  15 -1.342304E+05 -7.852274E+04 -4.255063E+04 -5.300798E+03 -4.135903E-14 -1.292470E-15
       110  16 -1.274474E+05 -8.647058E+04 -4.278360E+04 -2.670367E+03 -1.033976E-14 -5.169879E-15
       110  17 -1.300943E+05 -8.399361E+04 -4.281758E+04 -3.182398E+03  5.686867E-14  2.584939E-15
       110  18 -1.331266E+05 -8.194233E+04 -4.301378E+04 -3.451033E+03 -2.584939E-15  9.047288E-15
       110  19 -1.265149E+05 -8.236559E+04 -4.177610E+04 -6.535517E+03  1.209752E-12 -1.566473E-12
       110  20 -1.309812E+05 -7.892463E+04 -4.198117E+04 -6.833138E+03  9.357481E-13 -1.344168E-12
       110  21 -1.353704E+05 -7.543580E+04 -4.216124E+04 -7.166022E+03  9.654749E-13 -1.354508E-12
       110  22 -1.268410E+05 -8.452658E+04 -4.227351E+04 -4.561066E+03  1.116694E-12 -1.509605E-12
       110  23 -1.304764E+05 -8.145555E+04 -4.238640E+04 -4.970322E+03  0.000000E+00  3.101927E-14
       110  24 -1.342304E+05 -7.852274E+04 -4.255063E+04 -5.300798E+03  7.444626E-13 -1.320904E-12
       110  25 -1.274474E+05 -8.647058E+04 -4.278360E+04 -2.670367E+03  1.323489E-12 -1.737079E-12
       110  26 -1.300943E+05 -8.399361E+04 -4.281758E+04 -3.182398E+03  1.075335E-12 -1.468246E-12
       110  27 -1.331266E+05 -8.194233E+04 -4.301378E+04 -3.451033E+03  1.209752E-12 -1.550964E-12
       111   1 -4.208031E+05 -1.964956E+05 -1.234598E+05  1.642126E+05 -2.564260E-12  3.970467E-12
       111   2 -3.906661E+05 -1.941835E+05 -1.169699E+05  1.564398E+05 -5.790264E-13  2.936491E-12
       111   3 -3.603355E+05 -1.920480E+05 -1.104767E+05  1.483876E+05 -2.781395E-12  2.057612E-12
       111   4 -4.430032E+05 -1.767972E+05 -1.239601E+05  1.617531E+05 -3.639595E-12  9.926167E-13
       111   5 -4.141454E+05 -1.744134E+05 -1.177117E+05  1.552858E+05 -4.963084E-13 -1.323489E-12
       111   6 -3.852435E+05 -1.721476E+05 -1.114782E+05  1.486061E+05 -2.150670E-12  2.109311E-12
       111   7 -4.666275E+05 -1.613574E+05 -1.255970E+05  1.605052E+05 -6.617445E-13  1.985233E-12
       111   8 -4.391757E+05 -1.591550E+05 -1.196661E+05  1.554467E+05 -1.654361E-12  6.617445E-13
       111   9 -4.118493E+05 -1.570388E+05 -1.137776E+05  1.502568E+05 -1.406207E-12  1.819797E-12
       111  10 -4.208031E+05 -1.964956E+05 -1.234598E+05  1.642126E+05  0.000000E+00  0.000000E+00
       111  11 -3.906661E+05 -1.941835E+05 -1.169699E+05  1.564398E+05 -1.654361E-13  8.271806E-14
       111  12 -3.603355E+05 -1.920480E+05 -1.104767E+05  1.483876E+05  0.000000E+00 -3.101927E-14
       111  13 -4.430032E+05 -1.767972E+05 -1.239601E+05  1.617531E+05  0.000000E+00 -3.308722E-13
       111  14 -4.141454E+05 -1.744134E+05 -1.177117E+05  1.552858E+05  1.654361E-13  1.654361E-13
       111  15 -3.852435E+05 -1.721476E+05 -1.114782E+05  1.486061E+05  0.000000E+00  4.135903E-14
       111  16 -4.666275E+05 -1.613574E+05 -1.255970E+05  1.605052E+05 -1.654361E-13  1.654361E-13
       111  17 -4.391757E+05 -1.591550E+05 -1.196661E+05  1.554467E+05  8.271806E-14 -3.308722E-13
       111  18 -4.118493E+05 -1.570388E+05 -1.137776E+05  1.502568E+05 -8.271806E-14  1.344168E-13
       111  19 -4.208031E+05 -1.964956E+05 -1.234598E+05  1.642126E+05  1.240771E-12 -1.323489E-12
       111  20 -3.906661E+05 -1.941835E+05 -1.169699E+05  1.564398E+05  3.226004E-12 -1.613002E-12
       111  21 -3.603355E+05 -1.920480E+05 -1.104767E+05  1.483876E+05  4.104884E-12 -2.719356E-12
       111  22 -4.430032E+05 -1.767972E+05 -1.239601E+05  1.617531E+05  3.639595E-12 -2.316106E-12
       111  23 -4.141454E+05 -1.744134E+05 -1.177117E+05  1.552858E+05  4.963084E-13  0.000000E+00
       111  24 -3.852435E+05 -1.721476E+05 -1.114782E+05  1.486061E+05  2.150670E-12 -1.240771E-13
       111  25 -4.666275E+05 -1.613574E+05 -1.255970E+05  1.605052E+05  6.617445E-13 -1.323489E-12
       111  26 -4.391757E+05 -1.591550E+05 -1.196661E+05  1.554467E+05  3.308722E-13  0.000000E+00
       111  27 -4.118493E+05 -1.570388E+05 -1.137776E+05  1.502568E+05  1.406207E-12 -4.963084E-13
       112   1 -3.415292E+05 -1.877738E+05 -1.058606E+05  1.412771E+05 -3.929108E-12  2.316106E-12
       112   2 -3.129708E+05 -1.831944E+05 -9.923305E+04  1.301445E+05 -1.943874E-12  2.853773E-12
       112   3 -2.870380E+05 -1.792954E+05 -9.326668E+04  1.187681E+05 -3.815371E-12  1.664701E-12
       112   4 -3.675879E+05 -1.701536E+05 -1.075483E+05  1.431891E+05 -6.617445E-13  9.926167E-13
       112   5 -3.378452E+05 -1.661276E+05 -1.007946E+05  1.326895E+05 -1.819797E-12  9.926167E-13
       112   6 -3.102943E+05 -1.626989E+05 -9.459864E+04  1.219362E+05 -1.695720E-12 -4.342698E-13
       112   7 -3.941458E+05 -1.537935E+05 -1.095879E+05  1.456084E+05 -9.926167E-13  3.308722E-13
       112   8 -3.630743E+05 -1.501149E+05 -1.026378E+05  1.355703E+05 -1.985233E-12  4.963084E-13
       112   9 -3.337842E+05 -1.469377E+05 -9.614439E+04  1.252530E+05 -1.282130E-12  1.654361E-13
       112  10 -3.415292E+05 -1.877738E+05 -1.058606E+05  1.412771E+05  0.000000E+00  1.654361E-13
       112  11 -3.129708E+05 -1.831944E+05 -9.923305E+04  1.301445E+05 -2.067952E-13 -1.240771E-13
       112  12 -2.870380E+05 -1.792954E+05 -9.326668E+04  1.187681E+05  5.169879E-14  2.067952E-14
       112  13 -3.675879E+05 -1.701536E+05 -1.075483E+05  1.431891E+05  0.000000E+00  0.000000E+00
       112  14 -3.378452E+05 -1.661276E+05 -1.007946E+05  1.326895E+05  3.308722E-13 -1.654361E-13
       112  15 -3.102943E+05 -1.626989E+05 -9.459864E+04  1.219362E+05  0.000000E+00 -4.135903E-14
       112  16 -3.941458E+05 -1.537935E+05 -1.095879E+05  1.456084E+05 -8.271806E-14  0.000000E+00
       112  17 -3.630743E+05 -1.501149E+05 -1.026378E+05  1.355703E+05 -4.135903E-14  1.654361E-13
       112  18 -3.337842E+05 -1.469377E+05 -9.614439E+04  1.252530E+05 -5.169879E-14 -1.447566E-13
       112  19 -3.415292E+05 -1.877738E+05 -1.058606E+05  1.412771E+05  3.929108E-12 -2.316106E-12
       112  20 -3.129708E+05 -1.831944E+05 -9.923305E+04  1.301445E+05  2.605619E-12 -2.192029E-12
       112  21 -2.870380E+05 -1.792954E+05 -9.326668E+04  1.187681E+05  3.815371E-12 -4.311679E-12
       112  22 -3.675879E+05 -1.701536E+05 -1.075483E+05  1.431891E+05  1.985233E-12 -9.926167E-13
       112  23 -3.378452E+05 -1.661276E+05 -1.007946E+05  1.326895E+05  4.963084E-13 -9.926167E-13
       112  24 -3.102943E+05 -1.626989E+05 -9.459864E+04  1.219362E+05  3.722313E-13 -8.892192E-13
       112  25 -3.941458E+05 -1.537935E+05 -1.095879E+05  1.456084E+05  3.308722E-13 -9.926167E-13
       112  26 -3.630743E+05 -1.501149E+05 -1.026378E+05  1.355703E+05  1.985233E-12 -1.819797E-12
       112  27 -3.337842E+05 -1.469377E+05 -9.614439E+04  1.252530E+05  1.282130E-12 -8.271806E-13
       113   1 -4.089184E+05 -1.455808E+05 -1.108998E+05  1.464732E+05 -7.858216E-13  8.685396E-13
       113   2 -3.763901E+05 -1.410160E+05 -1.034812E+05  1.373612E+05 -9.926167E-13  3.308722E-13
       113   3 -3.459690E+05 -1.372645E+05 -9.664670E+04  1.268009E+05 -1.323489E-12  1.323489E-12
       113   4 -4.339234E+05 -1.326072E+05 -1.133061E+05  1.515462E+05 -8.271806E-13  4.342698E-13
       113   5 -3.994209E+05 -1.259628E+05 -1.050768E+05  1.419447E+05  1.654361E-13  2.481542E-13
       113   6 -3.663305E+05 -1.198164E+05 -9.722937E+04  1.309605E+05 -1.654361E-13  0.000000E+00
       113   7 -4.595368E+05 -1.202641E+05 -1.159602E+05  1.574330E+05 -1.809458E-13  2.119650E-13
       113   8 -4.228071E+05 -1.115231E+05 -1.068660E+05  1.471525E+05 -2.274747E-13  2.481542E-13
       113   9 -3.868813E+05 -1.030127E+05 -9.797881E+04  1.355279E+05 -1.654361E-13  2.067952E-13
       113  10 -4.089184E+05 -1.455808E+05 -1.108998E+05  1.464732E+05  4.135903E-14  0.000000E+00
       113  11 -3.763901E+05 -1.410160E+05 -1.034812E+05  1.373612E+05  0.000000E+00 -4.135903E-14
       113  12 -3.459690E+05 -1.372645E+05 -9.664670E+04  1.268009E+05  1.550964E-14 -1.033976E-14
       113  13 -4.339234E+05 -1.326072E+05 -1.133061E+05  1.515462E+05  0.000000E+00  0.000000E+00
       113  14 -3.994209E+05 -1.259628E+05 -1.050768E+05  1.419447E+05  8.271806E-14  8.271806E-14
       113  15 -3.663305E+05 -1.198164E+05 -9.722937E+04  1.309605E+05 -2.067952E-14 -2.067952E-14
       113  16 -4.595368E+05 -1.202641E+05 -1.159602E+05  1.574330E+05  0.000000E+00  0.000000E+00
       113  17 -4.228071E+05 -1.115231E+05 -1.068660E+05  1.471525E+05  0.000000E+00  0.000000E+00
       113  18 -3.868813E+05 -1.030127E+05 -9.797881E+04  1.355279E+05  1.033976E-14 -2.584939E-14
       113  19 -4.089184E+05 -1.455808E+05 -1.108998E+05  1.464732E+05  1.447566E-12 -1.199412E-12
       113  20 -3.763901E+05 -1.410160E+05 -1.034812E+05  1.373612E+05  1.654361E-12 -9.926167E-13
       113  21 -3.459690E+05 -1.372645E+05 -9.664670E+04  1.268009E+05  9.926167E-13 -1.323489E-12
       113  22 -4.339234E+05 -1.326072E+05 -1.133061E+05  1.515462E+05  4.963084E-13 -4.342698E-13
       113  23 -3.994209E+05 -1.259628E+05 -1.050768E+05  1.419447E+05 -1.654361E-13 -2.481542E-13
       113  24 -3.663305E+05 -1.198164E+05 -9.722937E+04  1.309605E+05  6.617445E-13 -3.308722E-13
       113  25 -4.595368E+05 -1.202641E+05 -1.159602E+05  1.574330E+05  1.809458E-13 -1.292470E-13
       113  26 -4.228071E+05 -1.115231E+05 -1.068660E+05  1.471525E+05  2.274747E-13 -2.895132E-13
       113  27 -3.868813E+05 -1.030127E+05 -9.797881E+04  1.355279E+05  2.067952E-13 -1.654361E-13
       114   1 -4.845320E+05 -1.529256E+05 -1.274915E+05  1.637588E+05 -1.116694E-12  5.790264E-13
       114   2 -4.565856E+05 -1.502646E+05 -1.213700E+05  1.582157E+05 -9.926167E-13  9.926167E-13
       114   3 -4.275100E+05 -1.478208E+05 -1.150662E+05  1.512738E+05 -1.654361E-12  6.617445E-13
       114   4 -5.142315E+05 -1.432135E+05 -1.314890E+05  1.666714E+05 -4.135903E-13  3.515518E-13
       114   5 -4.841709E+05 -1.377935E+05 -1.243929E+05  1.617199E+05  4.963084E-13  0.000000E+00
       114   6 -4.525939E+05 -1.322034E+05 -1.169594E+05  1.555876E+05 -1.323489E-12  4.963084E-13
       114   7 -5.470249E+05 -1.394358E+05 -1.372921E+05  1.719124E+05 -4.859686E-13  1.292470E-13
       114   8 -5.145874E+05 -1.317403E+05 -1.292655E+05  1.673682E+05 -4.135903E-13  1.861156E-13
       114   9 -4.802796E+05 -1.236131E+05 -1.207786E+05  1.618014E+05 -3.308722E-13  8.271806E-14
       114  10 -4.845320E+05 -1.529256E+05 -1.274915E+05  1.637588E+05  4.135903E-14  0.000000E+00
       114  11 -4.565856E+05 -1.502646E+05 -1.213700E+05  1.582157E+05  1.654361E-13 -8.271806E-14
       114  12 -4.275100E+05 -1.478208E+05 -1.150662E+05  1.512738E+05  7.754818E-14  1.033976E-14
       114  13 -5.142315E+05 -1.432135E+05 -1.314890E+05  1.666714E+05 -1.654361E-13  0.000000E+00
       114  14 -4.841709E+05 -1.377935E+05 -1.243929E+05  1.617199E+05 -8.271806E-14 -1.240771E-13
       114  15 -4.525939E+05 -1.322034E+05 -1.169594E+05  1.555876E+05  4.135903E-14 -5.169879E-14
       114  16 -5.470249E+05 -1.394358E+05 -1.372921E+05  1.719124E+05  0.000000E+00  0.000000E+00
       114  17 -5.145874E+05 -1.317403E+05 -1.292655E+05  1.673682E+05 -6.203855E-14  4.135903E-14
       114  18 -4.802796E+05 -1.236131E+05 -1.207786E+05  1.618014E+05  5.169879E-15  5.169879E-15
       114  19 -4.845320E+05 -1.529256E+05 -1.274915E+05  1.637588E+05  1.778438E-12 -5.790264E-13
       114  20 -4.565856E+05 -1.502646E+05 -1.213700E+05  1.582157E+05  9.926167E-13 -9.926167E-13
       114  21 -4.275100E+05 -1.478208E+05 -1.150662E+05  1.512738E+05  1.654361E-12 -1.323489E-12
       114  22 -5.142315E+05 -1.432135E+05 -1.314890E+05  1.666714E+05  4.135903E-13 -2.067952E-14
       114  23 -4.841709E+05 -1.377935E+05 -1.243929E+05  1.617199E+05  1.654361E-13  3.308722E-13
       114  24 -4.525939E+05 -1.322034E+05 -1.169594E+05  1.555876E+05  9.926167E-13 -1.654361E-13
       114  25 -5.470249E+05 -1.394358E+05 -1.372921E+05  1.719124E+05  1.550964E-13 -1.292470E-13
       114  26 -5.145874E+05 -1.317403E+05 -1.292655E+05  1.673682E+05  3.308722E-13 -1.033976E-13
       114  27 -4.802796E+05 -1.236131E+05 -1.207786E+05  1.618014E+05  1.654361E-13 -8.271806E-14
       115   1 -2.682794E+05 -2.190745E+05 -9.747079E+04  1.333576E+05  9.760731E-12 -1.025704E-11
       115   2 -2.605107E+05 -2.189288E+05 -9.588791E+04  1.374010E+05  1.819797E-12 -1.323489E-12
       115   3 -2.562515E+05 -2.262856E+05 -9.650742E+04  1.441576E+05 -1.323489E-12  3.805031E-12
       115   4 -2.396062E+05 -2.245963E+05 -9.284049E+04  1.278060E+05  1.985233E-12  0.000000E+00
       115   5 -2.339064E+05 -2.247016E+05 -9.172161E+04  1.339867E+05  1.323489E-12  3.970467E-12
       115   6 -2.319945E+05 -2.319769E+05 -9.279427E+04  1.434144E+05 -1.075335E-12 -2.646978E-12
       115   7 -2.068947E+05 -2.290166E+05 -8.718227E+04  1.229463E+05  3.970467E-12 -1.058791E-11
       115   8 -2.022020E+05 -2.290052E+05 -8.624143E+04  1.314935E+05  1.323489E-12 -5.293956E-12
       115   9 -2.013702E+05 -2.357709E+05 -8.742821E+04  1.438511E+05  0.000000E+00  4.301339E-12
       115  10 -2.682794E+05 -2.190745E+05 -9.747079E+04  1.333576E+05 -1.654361E-13  0.000000E+00
       115  11 -2.605107E+05 -2.189288E+05 -9.588791E+04  1.374010E+05  0.000000E+00  0.000000E+00
       115  12 -2.562515E+05 -2.262856E+05 -9.650742E+04  1.441576E+05  1.654361E-13  4.135903E-13
       115  13 -2.396062E+05 -2.245963E+05 -9.284049E+04  1.278060E+05  0.000000E+00  0.000000E+00
       115  14 -2.339064E+05 -2.247016E+05 -9.172161E+04  1.339867E+05 -9.926167E-13 -6.617445E-13
       115  15 -2.319945E+05 -2.319769E+05 -9.279427E+04  1.434144E+05  1.654361E-13  0.000000E+00
       115  16 -2.068947E+05 -2.290166E+05 -8.718227E+04  1.229463E+05  0.000000E+00  0.000000E+00
       115  17 -2.022020E+05 -2.290052E+05 -8.624143E+04  1.314935E+05 -8.271806E-13 -6.617445E-13
       115  18 -2.013702E+05 -2.357709E+05 -8.742821E+04  1.438511E+05  4.135903E-14  1.654361E-13
       115  19 -2.682794E+05 -2.190745E+05 -9.747079E+04  1.333576E+05 -4.466775E-12  4.963084E-12
       115  20 -2.605107E+05 -2.189288E+05 -9.588791E+04  1.374010E+05 -4.963084E-13  3.970467E-12
       115  21 -2.562515E+05 -2.262856E+05 -9.650742E+04  1.441576E+05  0.000000E+00 -1.158053E-12
       115  22 -2.396062E+05 -2.245963E+05 -9.284049E+04  1.278060E+05 -4.632211E-12 -5.293956E-12
       115  23 -2.339064E+05 -2.247016E+05 -9.172161E+04  1.339867E+05  1.323489E-12  1.323489E-12
       115  24 -2.319945E+05 -2.319769E+05 -9.279427E+04  1.434144E+05 -2.481542E-13  2.646978E-12
       115  25 -2.068947E+05 -2.290166E+05 -8.718227E+04  1.229463E+05 -1.323489E-12  5.293956E-12
       115  26 -2.022020E+05 -2.290052E+05 -8.624143E+04  1.314935E+05 -1.323489E-12  0.000000E+00
       115  27 -2.013702E+05 -2.357709E+05 -8.742821E+04  1.438511E+05 -1.323489E-12 -1.654361E-12
       116   1 -2.541503E+05 -2.293937E+05 -9.670880E+04  1.511089E+05  1.654361E-13  1.323489E-12
       116   2 -2.601771E+05 -2.296095E+05 -9.795734E+04  1.651496E+05  8.271806E-14  4.301339E-12
       116   3 -2.660074E+05 -2.307564E+05 -9.935277E+04  1.788404E+05  1.013296E-12  2.646978E-12
       116   4 -2.354763E+05 -2.350366E+05 -9.410259E+04  1.518092E+05  1.985233E-12  2.646978E-12
       116   5 -2.417017E+05 -2.364387E+05 -9.562809E+04  1.641776E+05 -1.323489E-12 -5.293956E-12
       116   6 -2.476715E+05 -2.388896E+05 -9.731221E+04  1.761019E+05 -3.308722E-13 -1.488925E-12
       116   7 -2.180323E+05 -2.411858E+05 -9.184363E+04  1.521322E+05 -1.323489E-12 -7.940934E-12
       116   8 -2.246041E+05 -2.438951E+05 -9.369984E+04  1.627354E+05  1.323489E-12  1.323489E-12
       116   9 -2.308577E+05 -2.477862E+05 -9.572878E+04  1.727886E+05  3.474159E-12  2.316106E-12
       116  10 -2.541503E+05 -2.293937E+05 -9.670880E+04  1.511089E+05  0.000000E+00  6.617445E-13
       116  11 -2.601771E+05 -2.296095E+05 -9.795734E+04  1.651496E+05 -5.790264E-13 -1.654361E-13
       116  12 -2.660074E+05 -2.307564E+05 -9.935277E+04  1.788404E+05  1.447566E-13  1.654361E-13
       116  13 -2.354763E+05 -2.350366E+05 -9.410259E+04  1.518092E+05  0.000000E+00  0.000000E+00
       116  14 -2.417017E+05 -2.364387E+05 -9.562809E+04  1.641776E+05  4.963084E-13  1.323489E-12
       116  15 -2.476715E+05 -2.388896E+05 -9.731221E+04  1.761019E+05 -2.067952E-13 -3.308722E-13
       116  16 -2.180323E+05 -2.411858E+05 -9.184363E+04  1.521322E+05 -1.654361E-13 -6.617445E-13
       116  17 -2.246041E+05 -2.438951E+05 -9.369984E+04  1.627354E+05 -2.481542E-13 -8.271806E-13
       116  18 -2.308577E+05 -2.477862E+05 -9.572878E+04  1.727886E+05 -4.135903E-14  5.376674E-13
       116  19 -2.541503E+05 -2.293937E+05 -9.670880E+04  1.511089E+05  1.158053E-12 -3.970467E-12
       116  20 -2.601771E+05 -2.296095E+05 -9.795734E+04  1.651496E+05 -8.271806E-14  9.926167E-13
       116  21 -2.660074E+05 -2.307564E+05 -9.935277E+04  1.788404E+05  3.101927E-13  2.646978E-12
       116  22 -2.354763E+05 -2.350366E+05 -9.410259E+04  1.518092E+05 -1.985233E-12  0.000000E+00
       116  23 -2.417017E+05 -2.364387E+05 -9.562809E+04  1.641776E+05  2.646978E-12  0.000000E+00
       116  24 -2.476715E+05 -2.388896E+05 -9.731221E+04  1.761019E+05 -9.926167E-13 -1.158053E-12
       116  25 -2.180323E+05 -2.411858E+05 -9.184363E+04  1.521322E+05  1.323489E-12 -2.646978E-12
       116  26 -2.246041E+05 -2.438951E+05 -9.369984E+04  1.627354E+05 -1.323489E-12 -3.970467E-12
       116  27 -2.308577E+05 -2.477862E+05 -9.572878E+04  1.727886E+05 -3.474159E-12 -2.316106E-12
       117   1 -2.012670E+05 -2.513166E+05 -9.051671E+04  1.454988E+05  1.737079E-12  4.963084E-12
       117   2 -2.119245E+05 -2.510254E+05 -9.258999E+04  1.598843E+05  1.654361E-12  2.646978E-12
       117   3 -2.216470E+05 -2.512058E+05 -9.457056E+04  1.731114E+05  7.858216E-13 -2.067952E-13
       117   4 -1.897933E+05 -2.436198E+05 -8.668262E+04  1.559955E+05 -1.985233E-12  1.323489E-12
       117   5 -1.989639E+05 -2.488022E+05 -8.955322E+04  1.647800E+05  1.323489E-12  0.000000E+00
       117   6 -2.070172E+05 -2.546315E+05 -9.232974E+04  1.721289E+05  2.233388E-12  3.639595E-12
       117   7 -1.864554E+05 -2.390276E+05 -8.509661E+04  1.642280E+05  2.646978E-12 -2.646978E-12
       117   8 -1.944443E+05 -2.500924E+05 -8.890732E+04  1.670695E+05  1.323489E-12  2.646978E-12
       117   9 -2.011231E+05 -2.620090E+05 -9.262642E+04  1.681602E+05  4.963084E-13 -9.595295E-12
       117  10 -2.012670E+05 -2.513166E+05 -9.051671E+04  1.454988E+05 -1.654361E-13 -3.308722E-13
       117  11 -2.119245E+05 -2.510254E+05 -9.258999E+04  1.598843E+05  3.308722E-13 -4.963084E-13
       117  12 -2.216470E+05 -2.512058E+05 -9.457056E+04  1.731114E+05  3.308722E-13 -4.135903E-14
       117  13 -1.897933E+05 -2.436198E+05 -8.668262E+04  1.559955E+05  3.308722E-13  0.000000E+00
       117  14 -1.989639E+05 -2.488022E+05 -8.955322E+04  1.647800E+05  4.963084E-13  0.000000E+00
       117  15 -2.070172E+05 -2.546315E+05 -9.232974E+04  1.721289E+05 -8.271806E-14  9.926167E-13
       117  16 -1.864554E+05 -2.390276E+05 -8.509661E+04  1.642280E+05  0.000000E+00  0.000000E+00
       117  17 -1.944443E+05 -2.500924E+05 -8.890732E+04  1.670695E+05  1.654361E-13 -1.488925E-12
       117  18 -2.011231E+05 -2.620090E+05 -9.262642E+04  1.681602E+05  8.271806E-14  2.067952E-13
       117  19 -2.012670E+05 -2.513166E+05 -9.051671E+04  1.454988E+05 -1.737079E-12  3.308722E-13
       117  20 -2.119245E+05 -2.510254E+05 -9.258999E+04  1.598843E+05  9.926167E-13 -2.646978E-12
       117  21 -2.216470E+05 -2.512058E+05 -9.457056E+04  1.731114E+05 -7.858216E-13  2.067952E-13
       117  22 -1.897933E+05 -2.436198E+05 -8.668262E+04  1.559955E+05  6.617445E-13  3.970467E-12
       117  23 -1.989639E+05 -2.488022E+05 -8.955322E+04  1.647800E+05  0.000000E+00 -5.293956E-12
       117  24 -2.070172E+05 -2.546315E+05 -9.232974E+04  1.721289E+05 -9.098987E-13  1.654361E-12
       117  25 -1.864554E+05 -2.390276E+05 -8.509661E+04  1.642280E+05 -1.323489E-12  2.646978E-12
       117  26 -1.944443E+05 -2.500924E+05 -8.890732E+04  1.670695E+05  0.000000E+00  0.000000E+00
       117  27 -2.011231E+05 -2.620090E+05 -9.262642E+04  1.681602E+05 -1.819797E-12  1.654361E-12
       118   1 -1.832222E+05 -2.177261E+05 -8.018966E+04  1.299239E+05 -9.926167E-13  1.985233E-12
       118   2 -1.908158E+05 -2.154014E+05 -8.124344E+04  1.438931E+05  0.000000E+00 -3.970467E-12
       118   3 -1.934061E+05 -2.407790E+05 -8.683702E+04  1.408683E+05  2.233388E-12  1.323489E-12
       118   4 -1.194750E+05 -2.425342E+05 -7.240185E+04  1.283595E+05 -2.646978E-12 -2.646978E-12
       118   5 -1.571705E+05 -2.313293E+05 -7.769995E+04  1.442578E+05 -9.926167E-13 -1.323489E-12
       118   6 -1.928009E+05 -2.448384E+05 -8.752787E+04  1.443362E+05  9.926167E-13 -3.308722E-12
       118   7 -4.097846E+04 -2.614287E+05 -6.048144E+04  1.315102E+05  0.000000E+00  0.000000E+00
       118   8 -1.056838E+05 -2.399159E+05 -6.911994E+04  1.504845E+05 -6.617445E-13 -2.646978E-12
       118   9 -1.706042E+05 -2.397554E+05 -8.207193E+04  1.550935E+05 -1.323489E-12 -6.617445E-13
       118  10 -1.832222E+05 -2.177261E+05 -8.018966E+04  1.299239E+05  1.654361E-13  6.617445E-13
       118  11 -1.908158E+05 -2.154014E+05 -8.124344E+04  1.438931E+05 -8.271806E-14  0.000000E+00
       118  12 -1.934061E+05 -2.407790E+05 -8.683702E+04  1.408683E+05  2.895132E-13 -4.963084E-13
       118  13 -1.194750E+05 -2.425342E+05 -7.240185E+04  1.283595E+05 -6.617445E-13  0.000000E+00
       118  14 -1.571705E+05 -2.313293E+05 -7.769995E+04  1.442578E+05  0.000000E+00 -1.323489E-12
       118  15 -1.928009E+05 -2.448384E+05 -8.752787E+04  1.443362E+05 -5.376674E-13  1.488925E-12
       118  16 -4.097846E+04 -2.614287E+05 -6.048144E+04  1.315102E+05 -1.654361E-13  0.000000E+00
       118  17 -1.056838E+05 -2.399159E+05 -6.911994E+04  1.504845E+05 -5.790264E-13  0.000000E+00
       118  18 -1.706042E+05 -2.397554E+05 -8.207193E+04  1.550935E+05 -6.203855E-14 -5.790264E-13
       118  19 -1.832222E+05 -2.177261E+05 -8.018966E+04  1.299239E+05  9.926167E-13  3.308722E-12
       118  20 -1.908158E+05 -2.154014E+05 -8.124344E+04  1.438931E+05  1.323489E-12 -1.323489E-12
       118  21 -1.934061E+05 -2.407790E+05 -8.683702E+04  1.408683E+05 -2.233388E-12 -1.323489E-12
       118  22 -1.194750E+05 -2.425342E+05 -7.240185E+04  1.283595E+05 -1.323489E-12  7.940934E-12
       118  23 -1.571705E+05 -2.313293E+05 -7.769995E+04  1.442578E+05 -3.308722E-13  6.617445E-12
       118  24 -1.928009E+05 -2.448384E+05 -8.752787E+04  1.443362E+05 -2.316106E-12  3.308722E-12
       118  25 -4.097846E+04 -2.614287E+05 -6.048144E+04  1.315102E+05  0.000000E+00  0.000000E+00
       118  26 -1.056838E+05 -2.399159E+05 -6.911994E+04  1.504845E+05 -6.617445E-13  2.646978E-12
       118  27 -1.706042E+05 -2.397554E+05 -8.207193E+04  1.550935E+05 -1.323489E-12  6.617445E-13
       119   1 -2.894410E+05 -2.969126E+05 -1.172707E+05  9.752252E+04  4.632211E-12  6.617445E-12
       119   2 -2.843853E+05 -2.870206E+05 -1.142812E+05  1.080064E+05  1.819797E-12 -3.308722E-12
       119   3 -2.795974E+05 -2.718597E+05 -1.102914E+05  1.211425E+05  9.512577E-13 -1.158053E-11
       119   4 -2.748020E+05 -3.054543E+05 -1.160513E+05  8.155280E+04  2.646978E-12 -5.293956E-12
       119   5 -2.653719E+05 -3.007393E+05 -1.132222E+05  9.226575E+04  2.646978E-12 -5.293956E-12
       119   6 -2.560528E+05 -2.910231E+05 -1.094152E+05  1.056955E+05  5.128520E-12  9.595295E-12
       119   7 -2.655401E+05 -3.163850E+05 -1.163850E+05  6.302468E+04  2.646978E-12  0.000000E+00
       119   8 -2.518422E+05 -3.170899E+05 -1.137864E+05  7.381690E+04  2.646978E-12 -2.646978E-12
       119   9 -2.380999E+05 -3.130938E+05 -1.102387E+05  8.738137E+04  6.617445E-13 -5.955700E-12
       119  10 -2.894410E+05 -2.969126E+05 -1.172707E+05  9.752252E+04  0.000000E+00  1.323489E-12
       119  11 -2.843853E+05 -2.870206E+05 -1.142812E+05  1.080064E+05  1.158053E-12 -3.308722E-13
       119  12 -2.795974E+05 -2.718597E+05 -1.102914E+05  1.211425E+05 -5.790264E-13  1.488925E-12
       119  13 -2.748020E+05 -3.054543E+05 -1.160513E+05  8.155280E+04  0.000000E+00 -2.646978E-12
       119  14 -2.653719E+05 -3.007393E+05 -1.132222E+05  9.226575E+04  0.000000E+00 -1.323489E-12
       119  15 -2.560528E+05 -2.910231E+05 -1.094152E+05  1.056955E+05  5.790264E-13  3.308722E-13
       119  16 -2.655401E+05 -3.163850E+05 -1.163850E+05  6.302468E+04  0.000000E+00 -6.617445E-13
       119  17 -2.518422E+05 -3.170899E+05 -1.137864E+05  7.381690E+04  1.323489E-12  9.926167E-13
       119  18 -2.380999E+05 -3.130938E+05 -1.102387E+05  8.738137E+04 -8.271806E-14  9.926167E-13
       119  19 -2.894410E+05 -2.969126E+05 -1.172707E+05  9.752252E+04 -1.985233E-12 -6.617445E-12
       119  20 -2.843853E+05 -2.870206E+05 -1.142812E+05  1.080064E+05 -1.819797E-12  8.602678E-12
       119  21 -2.795974E+05 -2.718597E+05 -1.102914E+05  1.211425E+05 -3.598236E-12  6.286573E-12
       119  22 -2.748020E+05 -3.054543E+05 -1.160513E+05  8.155280E+04 -5.293956E-12 -5.293956E-12
       119  23 -2.653719E+05 -3.007393E+05 -1.132222E+05  9.226575E+04  2.646978E-12 -5.293956E-12
       119  24 -2.560528E+05 -2.910231E+05 -1.094152E+05  1.056955E+05 -7.775498E-12  6.286573E-12
       119  25 -2.655401E+05 -3.163850E+05 -1.163850E+05  6.302468E+04 -5.293956E-12  5.293956E-12
       119  26 -2.518422E+05 -3.170899E+05 -1.137864E+05  7.381690E+04 -2.646978E-12 -7.940934E-12
       119  27 -2.380999E+05 -3.130938E+05 -1.102387E+05  8.738137E+04  1.985233E-12  6.617445E-13
       120   1 -2.798657E+05 -2.612668E+05 -1.082265E+05  1.292355E+05  5.459392E-12 -6.617445E-13
       120   2 -2.768395E+05 -2.448661E+05 -1.043411E+05  1.333307E+05  6.286573E-12 -1.720536E-11
       120   3 -2.721232E+05 -2.230901E+05 -9.904267E+04  1.363670E+05 -6.410650E-13 -3.391441E-12
       120   4 -2.486218E+05 -2.772553E+05 -1.051754E+05  1.180367E+05  6.617445E-13  5.293956E-12
       120   5 -2.483475E+05 -2.556991E+05 -1.008093E+05  1.254887E+05  0.000000E+00 -7.940934E-12
       120   6 -2.464196E+05 -2.276361E+05 -9.481114E+04  1.322722E+05  3.308722E-12  2.646978E-12
       120   7 -2.137633E+05 -2.916738E+05 -1.010874E+05  1.081559E+05  5.293956E-12  0.000000E+00
       120   8 -2.155158E+05 -2.644628E+05 -9.599571E+04  1.193517E+05  2.646978E-12  7.940934E-12
       120   9 -2.155347E+05 -2.294537E+05 -8.899770E+04  1.303601E+05 -1.654361E-13  6.617445E-13
       120  10 -2.798657E+05 -2.612668E+05 -1.082265E+05  1.292355E+05 -3.308722E-13  6.617445E-13
       120  11 -2.768395E+05 -2.448661E+05 -1.043411E+05  1.333307E+05  4.963084E-13 -1.654361E-12
       120  12 -2.721232E+05 -2.230901E+05 -9.904267E+04  1.363670E+05 -2.067952E-13  8.271806E-14
       120  13 -2.486218E+05 -2.772553E+05 -1.051754E+05  1.180367E+05  6.617445E-13 -2.646978E-12
       120  14 -2.483475E+05 -2.556991E+05 -1.008093E+05  1.254887E+05 -3.308722E-13  2.646978E-12
       120  15 -2.464196E+05 -2.276361E+05 -9.481114E+04  1.322722E+05 -2.481542E-13  4.963084E-13
       120  16 -2.137633E+05 -2.916738E+05 -1.010874E+05  1.081559E+05  3.308722E-13  1.323489E-12
       120  17 -2.155158E+05 -2.644628E+05 -9.599571E+04  1.193517E+05  1.654361E-13  6.617445E-13
       120  18 -2.155347E+05 -2.294537E+05 -8.899770E+04  1.303601E+05 -4.135903E-13  1.075335E-12
       120  19 -2.798657E+05 -2.612668E+05 -1.082265E+05  1.292355E+05 -2.812414E-12  6.617445E-13
       120  20 -2.768395E+05 -2.448661E+05 -1.043411E+05  1.333307E+05 -9.926167E-13  1.323489E-12
       120  21 -2.721232E+05 -2.230901E+05 -9.904267E+04  1.363670E+05  6.410650E-13  3.391441E-12
       120  22 -2.486218E+05 -2.772553E+05 -1.051754E+05  1.180367E+05 -6.617445E-13  0.000000E+00
       120  23 -2.483475E+05 -2.556991E+05 -1.008093E+05  1.254887E+05  0.000000E+00 -2.646978E-12
       120  24 -2.464196E+05 -2.276361E+05 -9.481114E+04  1.322722E+05 -3.308722E-12  2.646978E-12
       120  25 -2.137633E+05 -2.916738E+05 -1.010874E+05  1.081559E+05 -2.646978E-12  0.000000E+00
       120  26 -2.155158E+05 -2.644628E+05 -9.599571E+04  1.193517E+05 -2.646978E-12 -7.940934E-12
       120  27 -2.155347E+05 -2.294537E+05 -8.899770E+04  1.303601E+05 -1.158053E-12 -6.617445E-13
       121   1 -2.057498E+05 -3.062452E+05 -1.023990E+05  9.550756E+04  3.805031E-12  1.985233E-12
       121   2 -1.933243E+05 -2.929304E+05 -9.725093E+04  9.888047E+04  3.391441E-12 -3.970467E-12
       121   3 -1.825603E+05 -2.356574E+05 -8.364355E+04  1.287301E+05  4.694250E-12 -8.850833E-12
       121   4 -2.083846E+05 -3.288173E+05 -1.074404E+05  5.338425E+04  2.646978E-12 -2.646978E-12
       121   5 -1.557001E+05 -3.124392E+05 -9.362786E+04  7.648293E+04 -2.316106E-12 -3.970467E-12
       121   6 -1.003865E+05 -2.516328E+05 -7.040386E+04  1.301964E+05 -2.812414E-12 -3.308722E-13
       121   7 -2.088594E+05 -3.527024E+05 -1.123124E+05  7.696023E+03  2.646978E-12  0.000000E+00
       121   8 -1.123609E+05 -3.327947E+05 -8.903112E+04  5.055388E+04  4.632211E-12 -7.940934E-12
       121   9 -7.908581E+03 -2.678569E+05 -5.515310E+04  1.283441E+05 -6.617445E-13 -1.522012E-11
       121  10 -2.057498E+05 -3.062452E+05 -1.023990E+05  9.550756E+04 -1.654361E-13  6.617445E-13
       121  11 -1.933243E+05 -2.929304E+05 -9.725093E+04  9.888047E+04 -8.271806E-14  1.323489E-12
       121  12 -1.825603E+05 -2.356574E+05 -8.364355E+04  1.287301E+05 -1.447566E-13 -2.564260E-12
       121  13 -2.083846E+05 -3.288173E+05 -1.074404E+05  5.338425E+04  6.617445E-13 -1.323489E-12
       121  14 -1.557001E+05 -3.124392E+05 -9.362786E+04  7.648293E+04  3.308722E-13  2.646978E-12
       121  15 -1.003865E+05 -2.516328E+05 -7.040386E+04  1.301964E+05 -1.654361E-13  8.271806E-13
       121  16 -2.088594E+05 -3.527024E+05 -1.123124E+05  7.696023E+03 -1.654361E-13  6.617445E-13
       121  17 -1.123609E+05 -3.327947E+05 -8.903112E+04  5.055388E+04  0.000000E+00 -3.308722E-13
       121  18 -7.908581E+03 -2.678569E+05 -5.515310E+04  1.283441E+05  1.654361E-13  8.271806E-14
       121  19 -2.057498E+05 -3.062452E+05 -1.023990E+05  9.550756E+04 -3.805031E-12 -1.985233E-12
       121  20 -1.933243E+05 -2.929304E+05 -9.725093E+04  9.888047E+04 -7.361907E-12  3.970467E-12
       121  21 -1.825603E+05 -2.356574E+05 -8.364355E+04  1.287301E+05 -4.694250E-12  8.850833E-12
       121  22 -2.083846E+05 -3.288173E+05 -1.074404E+05  5.338425E+04 -2.646978E-12  2.646978E-12
       121  23 -1.557001E+05 -3.124392E+05 -9.362786E+04  7.648293E+04 -3.308722E-13 -6.617445E-12
       121  24 -1.003865E+05 -2.516328E+05 -7.040386E+04  1.301964E+05 -1.158053E-12  3.308722E-13
       121  25 -2.088594E+05 -3.527024E+05 -1.123124E+05  7.696023E+03 -2.646978E-12  1.058791E-11
       121  26 -1.123609E+05 -3.327947E+05 -8.903112E+04  5.055388E+04 -1.985233E-12  7.940934E-12
       121  27 -7.908581E+03 -2.678569E+05 -5.515310E+04  1.283441E+05 -6.617445E-13  9.926167E-12
       122   1 -2.585404E+05 -3.249924E+05 -1.167066E+05  4.950111E+04  1.158053E-12  8.602678E-12
       122   2 -2.433276E+05 -3.232733E+05 -1.133202E+05  6.434169E+04  2.398824E-12 -6.948317E-12
       122   3 -2.272632E+05 -3.158065E+05 -1.086139E+05  8.075377E+04  3.101927E-13 -1.265586E-11
       122   4 -2.511733E+05 -3.270944E+05 -1.156535E+05  2.861781E+04 -6.617445E-13 -1.852885E-11
       122   5 -2.331473E+05 -3.300087E+05 -1.126312E+05  3.629828E+04  0.000000E+00  2.646978E-12
       122   6 -2.139303E+05 -3.275617E+05 -1.082984E+05  4.456372E+04  3.887749E-12 -1.952146E-11
       122   7 -2.648106E+05 -3.350073E+05 -1.199636E+05  4.881152E+03  5.293956E-12  0.000000E+00
       122   8 -2.461848E+05 -3.433112E+05 -1.178992E+05  4.897678E+03  5.955700E-12 -7.940934E-12
       122   9 -2.263089E+05 -3.467626E+05 -1.146143E+05  4.392317E+03  3.639595E-12  0.000000E+00
       122  10 -2.585404E+05 -3.249924E+05 -1.167066E+05  4.950111E+04  0.000000E+00 -6.617445E-13
       122  11 -2.433276E+05 -3.232733E+05 -1.133202E+05  6.434169E+04 -1.654361E-13 -1.323489E-12
       122  12 -2.272632E+05 -3.158065E+05 -1.086139E+05  8.075377E+04 -4.135903E-14 -1.654361E-13
       122  13 -2.511733E+05 -3.270944E+05 -1.156535E+05  2.861781E+04  0.000000E+00  0.000000E+00
       122  14 -2.331473E+05 -3.300087E+05 -1.126312E+05  3.629828E+04  0.000000E+00  1.323489E-12
       122  15 -2.139303E+05 -3.275617E+05 -1.082984E+05  4.456372E+04 -5.790264E-13 -3.308722E-13
       122  16 -2.648106E+05 -3.350073E+05 -1.199636E+05  4.881152E+03  3.308722E-13  6.617445E-13
       122  17 -2.461848E+05 -3.433112E+05 -1.178992E+05  4.897678E+03 -1.654361E-13  1.323489E-12
       122  18 -2.263089E+05 -3.467626E+05 -1.146143E+05  4.392317E+03  0.000000E+00  6.617445E-13
       122  19 -2.585404E+05 -3.249924E+05 -1.167066E+05  4.950111E+04 -1.158053E-12 -8.602678E-12
       122  20 -2.433276E+05 -3.232733E+05 -1.133202E+05  6.434169E+04  2.481542E-13  1.654361E-12
       122  21 -2.272632E+05 -3.158065E+05 -1.086139E+05  8.075377E+04 -3.101927E-13  2.067952E-12
       122  22 -2.511733E+05 -3.270944E+05 -1.156535E+05  2.861781E+04 -1.985233E-12  7.940934E-12
       122  23 -2.331473E+05 -3.300087E+05 -1.126312E+05  3.629828E+04  0.000000E+00 -2.646978E-12
       122  24 -2.139303E+05 -3.275617E+05 -1.082984E+05  4.456372E+04 -1.240771E-12  3.639595E-12
       122  25 -2.648106E+05 -3.350073E+05 -1.199636E+05  4.881152E+03 -2.646978E-12 -1.058791E-11
       122  26 -2.461848E+05 -3.433112E+05 -1.178992E+05  4.897678E+03 -4.632211E-12 -2.646978E-12
       122  27 -2.263089E+05 -3.467626E+05 -1.146143E+05  4.392317E+03 -4.963084E-12  0.000000E+00
       123   1 -1.985139E+05 -2.772236E+05 -9.514751E+04  2.120256E+05  3.722313E-13  2.977850E-12
       123   2 -2.131139E+05 -2.611872E+05 -9.486021E+04  2.128101E+05  1.199412E-12 -1.488925E-12
       123   3 -2.309284E+05 -2.457362E+05 -9.533292E+04  2.124249E+05  1.881836E-12 -4.053185E-12
       123   4 -2.017493E+05 -2.701148E+05 -9.437283E+04  2.261593E+05  8.271806E-13 -3.308722E-12
       123   5 -2.206407E+05 -2.506079E+05 -9.424972E+04  2.264230E+05 -4.135903E-13  3.970467E-12
       123   6 -2.412720E+05 -2.315768E+05 -9.456976E+04  2.260681E+05  1.013296E-12  9.926167E-13
       123   7 -2.038061E+05 -2.565335E+05 -9.206792E+04  2.409902E+05  3.308722E-13  0.000000E+00
       123   8 -2.270455E+05 -2.349182E+05 -9.239275E+04  2.404488E+05 -1.654361E-13 -1.323489E-12
       123   9 -2.506440E+05 -2.134028E+05 -9.280935E+04  2.398578E+05  1.654361E-12  6.617445E-13
       123  10 -1.985139E+05 -2.772236E+05 -9.514751E+04  2.120256E+05 -8.271806E-14 -1.654361E-13
       123  11 -2.131139E+05 -2.611872E+05 -9.486021E+04  2.128101E+05 -1.033976E-13  1.654361E-13
       123  12 -2.309284E+05 -2.457362E+05 -9.533292E+04  2.124249E+05  5.169879E-15  1.447566E-13
       123  13 -2.017493E+05 -2.701148E+05 -9.437283E+04  2.261593E+05 -1.654361E-13  6.617445E-13
       123  14 -2.206407E+05 -2.506079E+05 -9.424972E+04  2.264230E+05 -4.135903E-13 -6.617445E-13
       123  15 -2.412720E+05 -2.315768E+05 -9.456976E+04  2.260681E+05  2.481542E-13 -4.963084E-13
       123  16 -2.038061E+05 -2.565335E+05 -9.206792E+04  2.409902E+05 -4.135903E-14 -1.654361E-13
       123  17 -2.270455E+05 -2.349182E+05 -9.239275E+04  2.404488E+05  1.033976E-13  4.963084E-13
       123  18 -2.506440E+05 -2.134028E+05 -9.280935E+04  2.398578E+05 -6.203855E-14  2.274747E-13
       123  19 -1.985139E+05 -2.772236E+05 -9.514751E+04  2.120256E+05 -3.722313E-13 -5.624828E-12
       123  20 -2.131139E+05 -2.611872E+05 -9.486021E+04  2.128101E+05 -5.376674E-13  1.488925E-12
       123  21 -2.309284E+05 -2.457362E+05 -9.533292E+04  2.124249E+05 -1.220091E-12  1.406207E-12
       123  22 -2.017493E+05 -2.701148E+05 -9.437283E+04  2.261593E+05 -8.271806E-13  6.617445E-13
       123  23 -2.206407E+05 -2.506079E+05 -9.424972E+04  2.264230E+05 -2.481542E-13 -1.323489E-12
       123  24 -2.412720E+05 -2.315768E+05 -9.456976E+04  2.260681E+05 -1.675041E-12  3.308722E-13
       123  25 -2.038061E+05 -2.565335E+05 -9.206792E+04  2.409902E+05  0.000000E+00  0.000000E+00
       123  26 -2.270455E+05 -2.349182E+05 -9.239275E+04  2.404488E+05 -4.963084E-13  2.646978E-12
       123  27 -2.506440E+05 -2.134028E+05 -9.280935E+04  2.398578E+05 -9.926167E-13 -6.617445E-13
       124   1 -2.406246E+05 -2.396131E+05 -9.604752E+04  2.091589E+05 -6.617445E-13  2.646978E-12
       124   2 -2.556386E+05 -2.313906E+05 -9.740583E+04  2.000928E+05 -1.013296E-12 -5.293956E-12
       124   3 -2.725418E+05 -2.244870E+05 -9.940576E+04  1.920922E+05  1.178732E-12  1.468246E-12
       124   4 -2.544214E+05 -2.254142E+05 -9.596711E+04  2.216767E+05 -4.963084E-13 -3.308722E-12
       124   5 -2.755542E+05 -2.156233E+05 -9.823549E+04  2.121480E+05  1.158053E-12 -9.926167E-13
       124   6 -2.958404E+05 -2.065770E+05 -1.004835E+05  2.043777E+05  2.212708E-12 -1.488925E-12
       124   7 -2.662094E+05 -2.030167E+05 -9.384522E+04  2.349815E+05  3.308722E-13  2.646978E-12
       124   8 -2.942583E+05 -1.948409E+05 -9.781984E+04  2.239192E+05  9.926167E-13 -1.323489E-12
       124   9 -3.187109E+05 -1.858898E+05 -1.009201E+05  2.155834E+05 -5.376674E-13  6.617445E-13
       124  10 -2.406246E+05 -2.396131E+05 -9.604752E+04  2.091589E+05  2.481542E-13  1.654361E-13
       124  11 -2.556386E+05 -2.313906E+05 -9.740583E+04  2.000928E+05  1.654361E-13 -4.963084E-13
       124  12 -2.725418E+05 -2.244870E+05 -9.940576E+04  1.920922E+05 -2.067952E-13 -6.203855E-14
       124  13 -2.544214E+05 -2.254142E+05 -9.596711E+04  2.216767E+05  0.000000E+00 -3.308722E-13
       124  14 -2.755542E+05 -2.156233E+05 -9.823549E+04  2.121480E+05  1.654361E-13  6.617445E-13
       124  15 -2.958404E+05 -2.065770E+05 -1.004835E+05  2.043777E+05  2.067952E-14  0.000000E+00
       124  16 -2.662094E+05 -2.030167E+05 -9.384522E+04  2.349815E+05  0.000000E+00 -4.963084E-13
       124  17 -2.942583E+05 -1.948409E+05 -9.781984E+04  2.239192E+05 -1.240771E-13  4.135903E-13
       124  18 -3.187109E+05 -1.858898E+05 -1.009201E+05  2.155834E+05  4.135903E-14  1.654361E-13
       124  19 -2.406246E+05 -2.396131E+05 -9.604752E+04  2.091589E+05  0.000000E+00 -2.646978E-12
       124  20 -2.556386E+05 -2.313906E+05 -9.740583E+04  2.000928E+05 -3.101927E-13  2.646978E-12
       124  21 -2.725418E+05 -2.244870E+05 -9.940576E+04  1.920922E+05  1.447566E-13 -1.468246E-12
       124  22 -2.544214E+05 -2.254142E+05 -9.596711E+04  2.216767E+05 -8.271806E-13  6.617445E-13
       124  23 -2.755542E+05 -2.156233E+05 -9.823549E+04  2.121480E+05  1.488925E-12 -1.654361E-12
       124  24 -2.958404E+05 -2.065770E+05 -1.004835E+05  2.043777E+05 -8.892192E-13 -1.158053E-12
       124  25 -2.662094E+05 -2.030167E+05 -9.384522E+04  2.349815E+05  3.308722E-13 -2.646978E-12
       124  26 -2.942583E+05 -1.948409E+05 -9.781984E+04  2.239192E+05 -9.926167E-13  1.323489E-12
       124  27 -3.187109E+05 -1.858898E+05 -1.009201E+05  2.155834E+05 -7.858216E-13  1.985233E-12
       125   1 -2.720127E+05 -1.936634E+05 -9.313522E+04  2.416222E+05  2.895132E-13 -1.406207E-12
       125   2 -3.010606E+05 -1.813062E+05 -9.647335E+04  2.335250E+05  4.135903E-13 -1.819797E-12
       125   3 -3.323641E+05 -1.701462E+05 -1.005021E+05  2.229452E+05  1.499265E-13  2.977850E-12
       125   4 -2.811934E+05 -1.764063E+05 -9.151994E+04  2.528466E+05  4.963084E-13  3.308722E-13
       125   5 -3.212701E+05 -1.591190E+05 -9.607782E+04  2.389094E+05 -3.308722E-13 -4.963084E-13
       125   6 -3.567602E+05 -1.394271E+05 -9.923748E+04  2.270161E+05  2.067952E-14  3.308722E-13
       125   7 -2.886180E+05 -1.459217E+05 -8.690795E+04  2.632555E+05  3.308722E-13  6.617445E-13
       125   8 -3.397391E+05 -1.314672E+05 -9.424127E+04  2.431824E+05  0.000000E+00 -6.617445E-13
       125   9 -3.806038E+05 -1.089602E+05 -9.791280E+04  2.290023E+05  1.654361E-13 -4.135903E-13
       125  10 -2.720127E+05 -1.936634E+05 -9.313522E+04  2.416222E+05  0.000000E+00  8.271806E-14
       125  11 -3.010606E+05 -1.813062E+05 -9.647335E+04  2.335250E+05  2.067952E-14 -1.654361E-13
       125  12 -3.323641E+05 -1.701462E+05 -1.005021E+05  2.229452E+05 -3.101927E-14  2.584939E-13
       125  13 -2.811934E+05 -1.764063E+05 -9.151994E+04  2.528466E+05  8.271806E-14  0.000000E+00
       125  14 -3.212701E+05 -1.591190E+05 -9.607782E+04  2.389094E+05  8.271806E-14  0.000000E+00
       125  15 -3.567602E+05 -1.394271E+05 -9.923748E+04  2.270161E+05 -1.033976E-13  4.135903E-14
       125  16 -2.886180E+05 -1.459217E+05 -8.690795E+04  2.632555E+05  0.000000E+00  8.271806E-14
       125  17 -3.397391E+05 -1.314672E+05 -9.424127E+04  2.431824E+05  6.203855E-14 -8.271806E-14
       125  18 -3.806038E+05 -1.089602E+05 -9.791280E+04  2.290023E+05 -5.686867E-14 -6.203855E-14
       125  19 -2.720127E+05 -1.936634E+05 -9.313522E+04  2.416222E+05 -2.895132E-13  1.406207E-12
       125  20 -3.010606E+05 -1.813062E+05 -9.647335E+04  2.335250E+05 -4.135903E-13  1.819797E-12
       125  21 -3.323641E+05 -1.701462E+05 -1.005021E+05  2.229452E+05 -8.116710E-13 -1.654361E-12
       125  22 -2.811934E+05 -1.764063E+05 -9.151994E+04  2.528466E+05 -4.963084E-13 -3.308722E-13
       125  23 -3.212701E+05 -1.591190E+05 -9.607782E+04  2.389094E+05  0.000000E+00 -8.271806E-13
       125  24 -3.567602E+05 -1.394271E+05 -9.923748E+04  2.270161E+05 -3.515518E-13 -3.308722E-13
       125  25 -2.886180E+05 -1.459217E+05 -8.690795E+04  2.632555E+05 -3.308722E-13 -6.617445E-13
       125  26 -3.397391E+05 -1.314672E+05 -9.424127E+04  2.431824E+05 -3.308722E-13  0.000000E+00
       125  27 -3.806038E+05 -1.089602E+05 -9.791280E+04  2.290023E+05 -1.654361E-13  8.271806E-14
       126   1 -1.981604E+05 -2.445918E+05 -8.855045E+04  2.512308E+05  4.135903E-14 -1.654361E-13
       126   2 -2.326337E+05 -2.262201E+05 -9.177075E+04  2.470068E+05  1.096014E-12 -3.308722E-13
       126   3 -2.582642E+05 -2.053594E+05 -9.272471E+04  2.439942E+05  3.670614E-13 -7.651421E-13
       126   4 -2.057871E+05 -2.290222E+05 -8.696186E+04  2.643601E+05  6.617445E-13  0.000000E+00
       126   5 -2.367586E+05 -2.101745E+05 -8.938661E+04  2.593599E+05 -4.963084E-13  2.316106E-12
       126   6 -2.588018E+05 -1.888127E+05 -8.952288E+04  2.557411E+05  1.861156E-13  8.271806E-13
       126   7 -2.130382E+05 -2.117341E+05 -8.495444E+04  2.773932E+05  0.000000E+00  1.323489E-12
       126   8 -2.402019E+05 -1.919001E+05 -8.642039E+04  2.712565E+05  3.308722E-13 -1.985233E-12
       126   9 -2.584400E+05 -1.696896E+05 -8.562591E+04  2.668107E+05  4.549493E-13  2.067952E-12
       126  10 -1.981604E+05 -2.445918E+05 -8.855045E+04  2.512308E+05  4.135903E-14  1.654361E-13
       126  11 -2.326337E+05 -2.262201E+05 -9.177075E+04  2.470068E+05 -6.203855E-14 -8.271806E-14
       126  12 -2.582642E+05 -2.053594E+05 -9.272471E+04  2.439942E+05  2.067952E-14  1.654361E-13
       126  13 -2.057871E+05 -2.290222E+05 -8.696186E+04  2.643601E+05 -1.654361E-13  3.308722E-13
       126  14 -2.367586E+05 -2.101745E+05 -8.938661E+04  2.593599E+05  2.895132E-13 -3.308722E-13
       126  15 -2.588018E+05 -1.888127E+05 -8.952288E+04  2.557411E+05 -5.169879E-14 -1.240771E-13
       126  16 -2.130382E+05 -2.117341E+05 -8.495444E+04  2.773932E+05  4.135903E-14 -1.654361E-13
       126  17 -2.402019E+05 -1.919001E+05 -8.642039E+04  2.712565E+05 -6.203855E-14  8.271806E-14
       126  18 -2.584400E+05 -1.696896E+05 -8.562591E+04  2.668107E+05 -5.686867E-14 -4.135903E-14
       126  19 -1.981604E+05 -2.445918E+05 -8.855045E+04  2.512308E+05 -1.033976E-12 -2.481542E-12
       126  20 -2.326337E+05 -2.262201E+05 -9.177075E+04  2.470068E+05 -4.342698E-13 -9.926167E-13
       126  21 -2.582642E+05 -2.053594E+05 -9.272471E+04  2.439942E+05 -1.028806E-12 -5.583469E-13
       126  22 -2.057871E+05 -2.290222E+05 -8.696186E+04  2.643601E+05 -6.617445E-13  0.000000E+00
       126  23 -2.367586E+05 -2.101745E+05 -8.938661E+04  2.593599E+05 -1.654361E-13 -9.926167E-13
       126  24 -2.588018E+05 -1.888127E+05 -8.952288E+04  2.557411E+05 -5.169879E-13 -8.271806E-13
       126  25 -2.130382E+05 -2.117341E+05 -8.495444E+04  2.773932E+05  0.000000E+00 -1.323489E-12
       126  26 -2.402019E+05 -1.919001E+05 -8.642039E+04  2.712565E+05 -3.308722E-13  6.617445E-13
       126  27 -2.584400E+05 -1.696896E+05 -8.562591E+04  2.668107E+05 -1.240771E-13 -7.444626E-13
       127   1 -4.019415E+05 -2.682769E+05 -1.340437E+05  1.881655E+05 -6.948317E-12  2.812414E-12
       127   2 -4.134824E+05 -2.395450E+05 -1.306055E+05  1.789571E+05 -7.940934E-12  1.571643E-12
       127   3 -4.251554E+05 -2.106418E+05 -1.271594E+05  1.692840E+05 -6.121137E-12  3.515518E-12
       127   4 -4.303791E+05 -2.534552E+05 -1.367669E+05  1.861950E+05 -5.293956E-12  3.308722E-12
       127   5 -4.393187E+05 -2.305290E+05 -1.339695E+05  1.792194E+05  1.985233E-12  6.617445E-13
       127   6 -4.486485E+05 -2.097043E+05 -1.316705E+05  1.724384E+05 -9.926167E-13  7.444626E-13
       127   7 -4.573035E+05 -2.382270E+05 -1.391061E+05  1.839457E+05  0.000000E+00  0.000000E+00
       127   8 -4.616868E+05 -2.203436E+05 -1.364061E+05  1.785141E+05 -3.970467E-12  2.646978E-12
       127   9 -4.666939E+05 -2.079180E+05 -1.349224E+05  1.742139E+05 -2.812414E-12  3.308722E-12
       127  10 -4.019415E+05 -2.682769E+05 -1.340437E+05  1.881655E+05  0.000000E+00  0.000000E+00
       127  11 -4.134824E+05 -2.395450E+05 -1.306055E+05  1.789571E+05 -4.963084E-13  3.308722E-13
       127  12 -4.251554E+05 -2.106418E+05 -1.271594E+05  1.692840E+05 -4.135903E-13 -3.308722E-13
       127  13 -4.303791E+05 -2.534552E+05 -1.367669E+05  1.861950E+05  6.617445E-13  0.000000E+00
       127  14 -4.393187E+05 -2.305290E+05 -1.339695E+05  1.792194E+05  3.308722E-13  6.617445E-13
       127  15 -4.486485E+05 -2.097043E+05 -1.316705E+05  1.724384E+05 -8.271806E-14 -5.790264E-13
       127  16 -4.573035E+05 -2.382270E+05 -1.391061E+05  1.839457E+05 -3.308722E-13  0.000000E+00
       127  17 -4.616868E+05 -2.203436E+05 -1.364061E+05  1.785141E+05 -8.271806E-13  1.654361E-13
       127  18 -4.666939E+05 -2.079180E+05 -1.349224E+05  1.742139E+05  2.481542E-13  3.101927E-13
       127  19 -4.019415E+05 -2.682769E+05 -1.340437E+05  1.881655E+05  4.301339E-12 -2.812414E-12
       127  20 -4.134824E+05 -2.395450E+05 -1.306055E+05  1.789571E+05  1.323489E-12 -4.218621E-12
       127  21 -4.251554E+05 -2.106418E+05 -1.271594E+05  1.692840E+05  3.474159E-12 -3.515518E-12
       127  22 -4.303791E+05 -2.534552E+05 -1.367669E+05  1.861950E+05  5.293956E-12 -1.985233E-12
       127  23 -4.393187E+05 -2.305290E+05 -1.339695E+05  1.792194E+05 -6.617445E-13 -6.617445E-13
       127  24 -4.486485E+05 -2.097043E+05 -1.316705E+05  1.724384E+05  2.316106E-12 -7.444626E-13
       127  25 -4.573035E+05 -2.382270E+05 -1.391061E+05  1.839457E+05  2.646978E-12  0.000000E+00
       127  26 -4.616868E+05 -2.203436E+05 -1.364061E+05  1.785141E+05  3.970467E-12 -2.646978E-12
       127  27 -4.666939E+05 -2.079180E+05 -1.349224E+05  1.742139E+05  5.459392E-12 -1.985233E-12
       128   1 -4.702228E+05 -2.370879E+05 -1.414621E+05  1.837776E+05 -4.963084E-12  3.308722E-13
       128   2 -4.739311E+05 -2.216501E+05 -1.391162E+05  1.793753E+05 -7.113753E-12  3.308722E-13
       128   3 -4.783786E+05 -2.080986E+05 -1.372954E+05  1.742120E+05 -8.395883E-12 -2.357465E-12
       128   4 -4.854557E+05 -2.385221E+05 -1.447956E+05  1.858685E+05  2.646978E-12  6.617445E-13
       128   5 -4.932015E+05 -2.218486E+05 -1.430100E+05  1.809579E+05  0.000000E+00 -6.617445E-13
       128   6 -5.015373E+05 -2.073827E+05 -1.417840E+05  1.756801E+05 -4.963084E-12  4.632211E-12
       128   7 -4.983195E+05 -2.389890E+05 -1.474617E+05  1.886738E+05 -7.940934E-12  2.646978E-12
       128   8 -5.092356E+05 -2.211000E+05 -1.460671E+05  1.830963E+05  0.000000E+00 -1.323489E-12
       128   9 -5.207588E+05 -2.056791E+05 -1.452876E+05  1.775003E+05 -2.316106E-12  4.301339E-12
       128  10 -4.702228E+05 -2.370879E+05 -1.414621E+05  1.837776E+05 -3.308722E-13  0.000000E+00
       128  11 -4.739311E+05 -2.216501E+05 -1.391162E+05  1.793753E+05  1.654361E-13 -1.654361E-13
       128  12 -4.783786E+05 -2.080986E+05 -1.372954E+05  1.742120E+05  7.444626E-13  2.067952E-13
       128  13 -4.854557E+05 -2.385221E+05 -1.447956E+05  1.858685E+05  0.000000E+00  0.000000E+00
       128  14 -4.932015E+05 -2.218486E+05 -1.430100E+05  1.809579E+05  0.000000E+00  0.000000E+00
       128  15 -5.015373E+05 -2.073827E+05 -1.417840E+05  1.756801E+05 -8.271806E-14  2.481542E-13
       128  16 -4.983195E+05 -2.389890E+05 -1.474617E+05  1.886738E+05  6.617445E-13 -1.654361E-13
       128  17 -5.092356E+05 -2.211000E+05 -1.460671E+05  1.830963E+05 -3.308722E-13 -2.481542E-13
       128  18 -5.207588E+05 -2.056791E+05 -1.452876E+05  1.775003E+05  2.481542E-13  1.033976E-13
       128  19 -4.702228E+05 -2.370879E+05 -1.414621E+05  1.837776E+05  4.963084E-12 -2.977850E-12
       128  20 -4.739311E+05 -2.216501E+05 -1.391162E+05  1.793753E+05  4.466775E-12 -2.977850E-12
       128  21 -4.783786E+05 -2.080986E+05 -1.372954E+05  1.742120E+05  5.748905E-12 -2.895132E-13
       128  22 -4.854557E+05 -2.385221E+05 -1.447956E+05  1.858685E+05  0.000000E+00 -1.985233E-12
       128  23 -4.932015E+05 -2.218486E+05 -1.430100E+05  1.809579E+05  0.000000E+00  6.617445E-13
       128  24 -5.015373E+05 -2.073827E+05 -1.417840E+05  1.756801E+05  2.316106E-12 -3.308722E-12
       128  25 -4.983195E+05 -2.389890E+05 -1.474617E+05  1.886738E+05  2.646978E-12 -1.323489E-12
       128  26 -5.092356E+05 -2.211000E+05 -1.460671E+05  1.830963E+05  0.000000E+00  1.323489E-12
       128  27 -5.207588E+05 -2.056791E+05 -1.452876E+05  1.775003E+05  4.963084E-12 -2.977850E-12
       129   1 -4.176462E+05 -2.827484E+05 -1.400789E+05  1.968044E+05 -4.963084E-12  3.970467E-12
       129   2 -4.382583E+05 -2.626422E+05 -1.401801E+05  1.902400E+05 -6.121137E-12  3.556877E-12
       129   3 -4.614911E+05 -2.457580E+05 -1.414498E+05  1.857636E+05 -4.632211E-12  1.695720E-12
       129   4 -4.431696E+05 -2.850974E+05 -1.456534E+05  2.032051E+05 -6.617445E-12  6.617445E-12
       129   5 -4.600976E+05 -2.659242E+05 -1.452044E+05  1.948863E+05 -2.646978E-12  1.323489E-12
       129   6 -4.792963E+05 -2.491820E+05 -1.456957E+05  1.879762E+05 -1.488925E-12  4.135903E-13
       129   7 -4.665173E+05 -2.878150E+05 -1.508664E+05  2.094369E+05  0.000000E+00  6.617445E-12
       129   8 -4.787559E+05 -2.682619E+05 -1.494036E+05  2.002550E+05 -3.970467E-12  0.000000E+00
       129   9 -4.925530E+05 -2.499152E+05 -1.484936E+05  1.922396E+05 -8.271806E-12 -1.654361E-12
       129  10 -4.176462E+05 -2.827484E+05 -1.400789E+05  1.968044E+05  3.308722E-13  0.000000E+00
       129  11 -4.382583E+05 -2.626422E+05 -1.401801E+05  1.902400E+05  9.926167E-13 -2.481542E-13
       129  12 -4.614911E+05 -2.457580E+05 -1.414498E+05  1.857636E+05  0.000000E+00 -1.654361E-13
       129  13 -4.431696E+05 -2.850974E+05 -1.456534E+05  2.032051E+05 -6.617445E-13  0.000000E+00
       129  14 -4.600976E+05 -2.659242E+05 -1.452044E+05  1.948863E+05 -3.308722E-13  0.000000E+00
       129  15 -4.792963E+05 -2.491820E+05 -1.456957E+05  1.879762E+05  3.308722E-13 -1.654361E-13
       129  16 -4.665173E+05 -2.878150E+05 -1.508664E+05  2.094369E+05 -6.617445E-13 -3.308722E-13
       129  17 -4.787559E+05 -2.682619E+05 -1.494036E+05  2.002550E+05 -6.617445E-13  6.617445E-13
       129  18 -4.925530E+05 -2.499152E+05 -1.484936E+05  1.922396E+05  4.963084E-13 -2.688337E-13
       129  19 -4.176462E+05 -2.827484E+05 -1.400789E+05  1.968044E+05  7.610062E-12 -2.646978E-12
       129  20 -4.382583E+05 -2.626422E+05 -1.401801E+05  1.902400E+05  3.474159E-12 -2.233388E-12
       129  21 -4.614911E+05 -2.457580E+05 -1.414498E+05  1.857636E+05  4.632211E-12 -1.695720E-12
       129  22 -4.431696E+05 -2.850974E+05 -1.456534E+05  2.032051E+05  3.970467E-12 -3.970467E-12
       129  23 -4.600976E+05 -2.659242E+05 -1.452044E+05  1.948863E+05 -2.646978E-12  1.323489E-12
       129  24 -4.792963E+05 -2.491820E+05 -1.456957E+05  1.879762E+05  1.488925E-12 -4.384057E-12
       129  25 -4.665173E+05 -2.878150E+05 -1.508664E+05  2.094369E+05  5.293956E-12 -3.970467E-12
       129  26 -4.787559E+05 -2.682619E+05 -1.494036E+05  2.002550E+05  3.970467E-12 -2.646978E-12
       129  27 -4.925530E+05 -2.499152E+05 -1.484936E+05  1.922396E+05  1.091878E-11 -2.316106E-12
       130   1 -3.104865E+05 -2.918771E+05 -1.204727E+05  7.553630E+04 -2.316106E-12  6.617445E-13
       130   2 -3.200186E+05 -2.893996E+05 -1.218836E+05  8.778495E+04  5.128520E-12 -2.646978E-12
       130   3 -3.310149E+05 -2.875781E+05 -1.237186E+05  9.939604E+04  5.542110E-12  3.391441E-12
       130   4 -3.093629E+05 -2.944672E+05 -1.207660E+05  7.872106E+04  1.323489E-12  0.000000E+00
       130   5 -3.200286E+05 -2.907879E+05 -1.221633E+05  9.126265E+04 -3.970467E-12  0.000000E+00
       130   6 -3.321341E+05 -2.877446E+05 -1.239758E+05  1.031807E+05 -3.474159E-12  2.977850E-12
       130   7 -3.080533E+05 -2.960077E+05 -1.208122E+05  8.248872E+04 -2.646978E-12 -1.058791E-11
       130   8 -3.198432E+05 -2.911486E+05 -1.221984E+05  9.531906E+04  7.940934E-12 -1.058791E-11
       130   9 -3.330492E+05 -2.869064E+05 -1.239911E+05  1.075395E+05  2.316106E-12  5.293956E-12
       130  10 -3.104865E+05 -2.918771E+05 -1.204727E+05  7.553630E+04  3.308722E-13  0.000000E+00
       130  11 -3.200186E+05 -2.893996E+05 -1.218836E+05  8.778495E+04  1.323489E-12  1.985233E-12
       130  12 -3.310149E+05 -2.875781E+05 -1.237186E+05  9.939604E+04 -5.790264E-13 -8.271806E-13
       130  13 -3.093629E+05 -2.944672E+05 -1.207660E+05  7.872106E+04  2.646978E-12  0.000000E+00
       130  14 -3.200286E+05 -2.907879E+05 -1.221633E+05  9.126265E+04  1.323489E-12  2.646978E-12
       130  15 -3.321341E+05 -2.877446E+05 -1.239758E+05  1.031807E+05  0.000000E+00 -1.654361E-12
       130  16 -3.080533E+05 -2.960077E+05 -1.208122E+05  8.248872E+04 -3.308722E-13 -1.323489E-12
       130  17 -3.198432E+05 -2.911486E+05 -1.221984E+05  9.531906E+04  0.000000E+00  0.000000E+00
       130  18 -3.330492E+05 -2.869064E+05 -1.239911E+05  1.075395E+05  7.444626E-13  6.617445E-13
       130  19 -3.104865E+05 -2.918771E+05 -1.204727E+05  7.553630E+04 -2.977850E-12 -6.617445E-13
       130  20 -3.200186E+05 -2.893996E+05 -1.218836E+05  8.778495E+04 -5.128520E-12 -7.940934E-12
       130  21 -3.310149E+05 -2.875781E+05 -1.237186E+05  9.939604E+04 -2.481542E-13  7.196471E-12
       130  22 -3.093629E+05 -2.944672E+05 -1.207660E+05  7.872106E+04  3.970467E-12  0.000000E+00
       130  23 -3.200286E+05 -2.907879E+05 -1.221633E+05  9.126265E+04 -6.617445E-12  0.000000E+00
       130  24 -3.321341E+05 -2.877446E+05 -1.239758E+05  1.031807E+05 -1.819797E-12 -2.977850E-12
       130  25 -3.080533E+05 -2.960077E+05 -1.208122E+05  8.248872E+04  2.646978E-12 -1.058791E-11
       130  26 -3.198432E+05 -2.911486E+05 -1.221984E+05  9.531906E+04 -7.940934E-12  0.000000E+00
       130  27 -3.330492E+05 -2.869064E+05 -1.239911E+05  1.075395E+05  2.977850E-12  5.293956E-12
       131   1 -3.377732E+05 -2.849391E+05 -1.245425E+05  1.067826E+05  7.279189E-12  1.323489E-12
       131   2 -3.506168E+05 -2.827262E+05 -1.266686E+05  1.174946E+05  8.933551E-12 -7.610062E-12
       131   3 -3.640952E+05 -2.806615E+05 -1.289513E+05  1.278002E+05  6.534727E-12 -1.414479E-11
       131   4 -3.394141E+05 -2.852254E+05 -1.249279E+05  1.101214E+05  1.323489E-11  0.000000E+00
       131   5 -3.523942E+05 -2.820652E+05 -1.268919E+05  1.202748E+05  5.293956E-12  3.970467E-12
       131   6 -3.660106E+05 -2.791215E+05 -1.290264E+05  1.300592E+05  3.308722E-12 -1.091878E-11
       131   7 -3.406089E+05 -2.835495E+05 -1.248317E+05  1.138607E+05  1.058791E-11 -1.058791E-11
       131   8 -3.538184E+05 -2.796563E+05 -1.266949E+05  1.234251E+05  1.058791E-11 -1.588187E-11
       131   9 -3.676544E+05 -2.760277E+05 -1.287364E+05  1.326648E+05  7.940934E-12 -9.264423E-12
       131  10 -3.377732E+05 -2.849391E+05 -1.245425E+05  1.067826E+05  6.617445E-13 -1.323489E-12
       131  11 -3.506168E+05 -2.827262E+05 -1.266686E+05  1.174946E+05  2.977850E-12  0.000000E+00
       131  12 -3.640952E+05 -2.806615E+05 -1.289513E+05  1.278002E+05  6.617445E-13 -1.902515E-12
       131  13 -3.394141E+05 -2.852254E+05 -1.249279E+05  1.101214E+05  0.000000E+00 -2.646978E-12
       131  14 -3.523942E+05 -2.820652E+05 -1.268919E+05  1.202748E+05  0.000000E+00  2.646978E-12
       131  15 -3.660106E+05 -2.791215E+05 -1.290264E+05  1.300592E+05  1.488925E-12 -3.308722E-13
       131  16 -3.406089E+05 -2.835495E+05 -1.248317E+05  1.138607E+05  0.000000E+00  1.323489E-12
       131  17 -3.538184E+05 -2.796563E+05 -1.266949E+05  1.234251E+05 -1.323489E-12  1.323489E-12
       131  18 -3.676544E+05 -2.760277E+05 -1.287364E+05  1.326648E+05 -8.271806E-14  4.963084E-13
       131  19 -3.377732E+05 -2.849391E+05 -1.245425E+05  1.067826E+05  3.308722E-12 -1.191140E-11
       131  20 -3.506168E+05 -2.827262E+05 -1.266686E+05  1.174946E+05  1.654361E-12 -2.977850E-12
       131  21 -3.640952E+05 -2.806615E+05 -1.289513E+05  1.278002E+05  4.053185E-12  3.556877E-12
       131  22 -3.394141E+05 -2.852254E+05 -1.249279E+05  1.101214E+05 -7.940934E-12 -1.058791E-11
       131  23 -3.523942E+05 -2.820652E+05 -1.268919E+05  1.202748E+05  5.293956E-12  1.720536E-11
       131  24 -3.660106E+05 -2.791215E+05 -1.290264E+05  1.300592E+05 -8.602678E-12  3.308722E-13
       131  25 -3.406089E+05 -2.835495E+05 -1.248317E+05  1.138607E+05 -2.117582E-11  5.293956E-12
       131  26 -3.538184E+05 -2.796563E+05 -1.266949E+05  1.234251E+05  0.000000E+00  5.293956E-12
       131  27 -3.676544E+05 -2.760277E+05 -1.287364E+05  1.326648E+05 -7.940934E-12 -1.323489E-12
       132   1 -3.413714E+05 -2.818991E+05 -1.246541E+05  1.168587E+05  1.158053E-11 -5.293956E-12
       132   2 -3.558751E+05 -2.769989E+05 -1.265748E+05  1.265471E+05  2.481542E-12 -6.948317E-12
       132   3 -3.707524E+05 -2.725387E+05 -1.286582E+05  1.354665E+05 -1.488925E-12 -1.340033E-11
       132   4 -3.452082E+05 -2.771473E+05 -1.244711E+05  1.230085E+05  1.191140E-11  0.000000E+00
       132   5 -3.632622E+05 -2.703495E+05 -1.267223E+05  1.324185E+05 -3.970467E-12 -1.323489E-12
       132   6 -3.808905E+05 -2.637080E+05 -1.289197E+05  1.413864E+05  8.106370E-12 -3.639595E-12
       132   7 -3.482902E+05 -2.684672E+05 -1.233515E+05  1.301815E+05  5.293956E-12 -1.058791E-11
       132   8 -3.698645E+05 -2.605259E+05 -1.260781E+05  1.390874E+05 -1.058791E-11 -2.646978E-12
       132   9 -3.903520E+05 -2.524757E+05 -1.285655E+05  1.478310E+05  2.646978E-12  5.955700E-12
       132  10 -3.413714E+05 -2.818991E+05 -1.246541E+05  1.168587E+05  0.000000E+00 -6.617445E-13
       132  11 -3.558751E+05 -2.769989E+05 -1.265748E+05  1.265471E+05 -9.926167E-13 -6.617445E-13
       132  12 -3.707524E+05 -2.725387E+05 -1.286582E+05  1.354665E+05 -1.406207E-12 -1.488925E-12
       132  13 -3.452082E+05 -2.771473E+05 -1.244711E+05  1.230085E+05 -1.323489E-12  0.000000E+00
       132  14 -3.632622E+05 -2.703495E+05 -1.267223E+05  1.324185E+05  3.970467E-12 -1.323489E-12
       132  15 -3.808905E+05 -2.637080E+05 -1.289197E+05  1.413864E+05  1.158053E-12  1.985233E-12
       132  16 -3.482902E+05 -2.684672E+05 -1.233515E+05  1.301815E+05  6.617445E-13  1.985233E-12
       132  17 -3.698645E+05 -2.605259E+05 -1.260781E+05  1.390874E+05  9.926167E-13  1.654361E-12
       132  18 -3.903520E+05 -2.524757E+05 -1.285655E+05  1.478310E+05  4.135903E-13  8.271806E-13
       132  19 -3.413714E+05 -2.818991E+05 -1.246541E+05  1.168587E+05 -9.926167E-13  0.000000E+00
       132  20 -3.558751E+05 -2.769989E+05 -1.265748E+05  1.265471E+05 -7.775498E-12 -3.639595E-12
       132  21 -3.707524E+05 -2.725387E+05 -1.286582E+05  1.354665E+05 -9.098987E-12  2.812414E-12
       132  22 -3.452082E+05 -2.771473E+05 -1.244711E+05  1.230085E+05 -6.617445E-12  1.058791E-11
       132  23 -3.632622E+05 -2.703495E+05 -1.267223E+05  1.324185E+05  3.970467E-12 -3.970467E-12
       132  24 -3.808905E+05 -2.637080E+05 -1.289197E+05  1.413864E+05 -2.812414E-12  8.933551E-12
       132  25 -3.482902E+05 -2.684672E+05 -1.233515E+05  1.301815E+05  0.000000E+00  5.293956E-12
       132  26 -3.698645E+05 -2.605259E+05 -1.260781E+05  1.390874E+05  0.000000E+00 -7.940934E-12
       132  27 -3.903520E+05 -2.524757E+05 -1.285655E+05  1.478310E+05  2.646978E-12 -1.654361E-11
       133   1 -3.069447E+05 -2.966482E+05 -1.207186E+05  8.539909E+04  2.646978E-12  5.955700E-12
       133   2 -3.192826E+05 -2.906052E+05 -1.219776E+05  9.854544E+04 -5.790264E-12 -6.617445E-13
       133   3 -3.331275E+05 -2.854057E+05 -1.237066E+05  1.107119E+05 -2.481542E-12  6.038418E-12
       133   4 -3.045437E+05 -2.960055E+05 -1.201098E+05  9.219062E+04  7.940934E-12  5.293956E-12
       133   5 -3.190515E+05 -2.880132E+05 -1.214129E+05  1.050181E+05  0.000000E+00 -1.323489E-12
       133   6 -3.349493E+05 -2.808724E+05 -1.231643E+05  1.169067E+05 -7.279189E-12 -1.389663E-11
       133   7 -3.017614E+05 -2.923925E+05 -1.188308E+05  1.001752E+05  2.646978E-12 -5.293956E-12
       133   8 -3.184487E+05 -2.825960E+05 -1.202089E+05  1.126314E+05  1.323489E-12 -2.646978E-12
       133   9 -3.364094E+05 -2.736528E+05 -1.220124E+05  1.241919E+05  6.617445E-12 -1.985233E-12
       133  10 -3.069447E+05 -2.966482E+05 -1.207186E+05  8.539909E+04  0.000000E+00  1.985233E-12
       133  11 -3.192826E+05 -2.906052E+05 -1.219776E+05  9.854544E+04 -6.617445E-13 -1.323489E-12
       133  12 -3.331275E+05 -2.854057E+05 -1.237066E+05  1.107119E+05 -1.116694E-12  9.098987E-13
       133  13 -3.045437E+05 -2.960055E+05 -1.201098E+05  9.219062E+04  0.000000E+00 -2.646978E-12
       133  14 -3.190515E+05 -2.880132E+05 -1.214129E+05  1.050181E+05  0.000000E+00  1.323489E-12
       133  15 -3.349493E+05 -2.808724E+05 -1.231643E+05  1.169067E+05 -1.654361E-13  9.926167E-13
       133  16 -3.017614E+05 -2.923925E+05 -1.188308E+05  1.001752E+05 -1.323489E-12  6.617445E-13
       133  17 -3.184487E+05 -2.825960E+05 -1.202089E+05  1.126314E+05 -1.654361E-13 -1.323489E-12
       133  18 -3.364094E+05 -2.736528E+05 -1.220124E+05  1.241919E+05 -6.617445E-13 -8.271806E-14
       133  19 -3.069447E+05 -2.966482E+05 -1.207186E+05  8.539909E+04 -2.646978E-12  4.632211E-12
       133  20 -3.192826E+05 -2.906052E+05 -1.219776E+05  9.854544E+04 -1.538556E-11  6.617445E-13
       133  21 -3.331275E+05 -2.854057E+05 -1.237066E+05  1.107119E+05  2.481542E-12  4.549493E-12
       133  22 -3.045437E+05 -2.960055E+05 -1.201098E+05  9.219062E+04 -2.646978E-12 -5.293956E-12
       133  23 -3.190515E+05 -2.880132E+05 -1.214129E+05  1.050181E+05  0.000000E+00  1.323489E-12
       133  24 -3.349493E+05 -2.808724E+05 -1.231643E+05  1.169067E+05  1.985233E-12 -1.985233E-12
       133  25 -3.017614E+05 -2.923925E+05 -1.188308E+05  1.001752E+05 -2.646978E-12  5.293956E-12
       133  26 -3.184487E+05 -2.825960E+05 -1.202089E+05  1.126314E+05 -6.617445E-12  7.940934E-12
       133  27 -3.364094E+05 -2.736528E+05 -1.220124E+05  1.241919E+05  3.970467E-12  1.985233E-12
       134   1 -3.692296E+05 -9.928048E+04 -9.370201E+04  1.288808E+05 -1.964554E-13  1.473415E-13
       134   2 -3.498375E+05 -1.175056E+05 -9.346862E+04  1.245158E+05 -5.997059E-13  2.895132E-13
       134   3 -3.300691E+05 -1.342424E+05 -9.286231E+04  1.204220E+05 -9.926167E-13  9.305782E-13
       134   4 -3.448420E+05 -9.327936E+04 -8.762427E+04  1.183069E+05 -1.447566E-13  2.067952E-13
       134   5 -3.256693E+05 -1.117951E+05 -8.749288E+04  1.139921E+05 -1.654361E-13 -2.481542E-13
       134   6 -3.060777E+05 -1.286652E+05 -8.694858E+04  1.099396E+05 -9.926167E-13  1.323489E-12
       134   7 -3.227578E+05 -8.786357E+04 -8.212427E+04  1.072532E+05 -8.271806E-14  1.861156E-13
       134   8 -3.038517E+05 -1.067087E+05 -8.211208E+04  1.030300E+05 -3.308722E-13  4.963084E-13
       134   9 -2.844819E+05 -1.237411E+05 -8.164460E+04  9.905974E+04 -9.926167E-13  1.158053E-12
       134  10 -3.692296E+05 -9.928048E+04 -9.370201E+04  1.288808E+05 -2.326445E-14 -2.067952E-14
       134  11 -3.498375E+05 -1.175056E+05 -9.346862E+04  1.245158E+05 -3.101927E-14  1.550964E-14
       134  12 -3.300691E+05 -1.342424E+05 -9.286231E+04  1.204220E+05  8.013312E-14  4.394397E-14
       134  13 -3.448420E+05 -9.327936E+04 -8.762427E+04  1.183069E+05  1.033976E-14  0.000000E+00
       134  14 -3.256693E+05 -1.117951E+05 -8.749288E+04  1.139921E+05  4.135903E-14  6.203855E-14
       134  15 -3.060777E+05 -1.286652E+05 -8.694858E+04  1.099396E+05 -6.203855E-14  1.033976E-14
       134  16 -3.227578E+05 -8.786357E+04 -8.212427E+04  1.072532E+05  0.000000E+00  0.000000E+00
       134  17 -3.038517E+05 -1.067087E+05 -8.211208E+04  1.030300E+05  4.135903E-14 -4.135903E-14
       134  18 -2.844819E+05 -1.237411E+05 -8.164460E+04  9.905974E+04  0.000000E+00  0.000000E+00
       134  19 -3.692296E+05 -9.928048E+04 -9.370201E+04  1.288808E+05  2.378144E-13 -2.714186E-13
       134  20 -3.498375E+05 -1.175056E+05 -9.346862E+04  1.245158E+05  5.997059E-13 -6.203855E-13
       134  21 -3.300691E+05 -1.342424E+05 -9.286231E+04  1.204220E+05  9.926167E-13 -5.997059E-13
       134  22 -3.448420E+05 -9.327936E+04 -8.762427E+04  1.183069E+05  1.447566E-13 -1.654361E-13
       134  23 -3.256693E+05 -1.117951E+05 -8.749288E+04  1.139921E+05  1.654361E-13 -8.271806E-14
       134  24 -3.060777E+05 -1.286652E+05 -8.694858E+04  1.099396E+05  9.926167E-13 -1.654361E-12
       134  25 -3.227578E+05 -8.786357E+04 -8.212427E+04  1.072532E+05  2.067952E-13 -1.861156E-13
       134  26 -3.038517E+05 -1.067087E+05 -8.211208E+04  1.030300E+05  3.308722E-13 -4.963084E-13
       134  27 -2.844819E+05 -1.237411E+05 -8.164460E+04  9.905974E+04  9.926167E-13 -1.488925E-12
       135   1 -3.179153E+05 -1.434637E+05 -9.227581E+04  1.188204E+05 -2.771055E-12  3.101927E-13
       135   2 -2.952266E+05 -1.593449E+05 -9.091432E+04  1.149483E+05 -5.997059E-13  2.171349E-12
       135   3 -2.724479E+05 -1.748431E+05 -8.945821E+04  1.111042E+05 -4.182432E-12  3.171721E-12
       135   4 -2.940691E+05 -1.377648E+05 -8.636678E+04  1.077362E+05 -1.158053E-12  8.271806E-13
       135   5 -2.719789E+05 -1.529287E+05 -8.498153E+04  1.032161E+05  8.271806E-14 -6.617445E-13
       135   6 -2.497649E+05 -1.676014E+05 -8.347327E+04  9.867794E+04 -2.543580E-12  1.406207E-12
       135   7 -2.733017E+05 -1.328192E+05 -8.122418E+04  9.664298E+04 -1.323489E-12  1.488925E-12
       135   8 -2.519365E+05 -1.472803E+05 -7.984338E+04  9.148293E+04 -1.654361E-12  1.654361E-12
       135   9 -2.304143E+05 -1.611359E+05 -7.831005E+04  8.625637E+04 -2.481542E-12  2.667657E-12
       135  10 -3.179153E+05 -1.434637E+05 -9.227581E+04  1.188204E+05  0.000000E+00 -4.135903E-14
       135  11 -2.952266E+05 -1.593449E+05 -9.091432E+04  1.149483E+05  1.033976E-13 -4.135903E-14
       135  12 -2.724479E+05 -1.748431E+05 -8.945821E+04  1.111042E+05 -4.135903E-14 -6.203855E-14
       135  13 -2.940691E+05 -1.377648E+05 -8.636678E+04  1.077362E+05  0.000000E+00  8.271806E-14
       135  14 -2.719789E+05 -1.529287E+05 -8.498153E+04  1.032161E+05 -8.271806E-14  2.067952E-13
       135  15 -2.497649E+05 -1.676014E+05 -8.347327E+04  9.867794E+04 -6.203855E-14 -1.033976E-13
       135  16 -2.733017E+05 -1.328192E+05 -8.122418E+04  9.664298E+04  8.271806E-14  4.135903E-14
       135  17 -2.519365E+05 -1.472803E+05 -7.984338E+04  9.148293E+04 -4.135903E-14  6.203855E-14
       135  18 -2.304143E+05 -1.611359E+05 -7.831005E+04  8.625637E+04  5.169879E-14 -3.101927E-14
       135  19 -3.179153E+05 -1.434637E+05 -9.227581E+04  1.188204E+05  1.447566E-12 -6.410650E-13
       135  20 -2.952266E+05 -1.593449E+05 -9.091432E+04  1.149483E+05  2.584939E-12 -2.171349E-12
       135  21 -2.724479E+05 -1.748431E+05 -8.945821E+04  1.111042E+05  2.858943E-12 -4.495210E-12
       135  22 -2.940691E+05 -1.377648E+05 -8.636678E+04  1.077362E+05  4.963084E-13 -1.158053E-12
       135  23 -2.719789E+05 -1.529287E+05 -8.498153E+04  1.032161E+05 -7.444626E-13 -3.308722E-13
       135  24 -2.497649E+05 -1.676014E+05 -8.347327E+04  9.867794E+04  3.205325E-12 -1.406207E-12
       135  25 -2.733017E+05 -1.328192E+05 -8.122418E+04  9.664298E+04  1.323489E-12 -1.488925E-12
       135  26 -2.519365E+05 -1.472803E+05 -7.984338E+04  9.148293E+04  1.654361E-12 -2.646978E-12
       135  27 -2.304143E+05 -1.611359E+05 -7.831005E+04  8.625637E+04  3.143286E-12 -2.667657E-12
       136   1 -2.622540E+05 -1.291685E+05 -7.828451E+04  9.014779E+04 -2.295426E-12  2.047272E-12
       136   2 -2.414985E+05 -1.434537E+05 -7.699043E+04  8.478620E+04 -1.985233E-12  1.726740E-12
       136   3 -2.201699E+05 -1.557050E+05 -7.517499E+04  7.883585E+04 -1.240771E-13  1.742249E-12
       136   4 -2.451805E+05 -1.221671E+05 -7.346951E+04  7.947332E+04 -7.444626E-13  1.819797E-12
       136   5 -2.252736E+05 -1.355057E+05 -7.215586E+04  7.357739E+04  8.271806E-14  1.654361E-13
       136   6 -2.047641E+05 -1.468452E+05 -7.032187E+04  6.713720E+04 -2.740036E-12  2.316106E-12
       136   7 -2.313569E+05 -1.159182E+05 -6.945503E+04  6.903149E+04 -6.617445E-13  2.150670E-12
       136   8 -2.120681E+05 -1.282493E+05 -6.806348E+04  6.258034E+04 -9.926167E-13  1.902515E-12
       136   9 -1.921619E+05 -1.386206E+05 -6.615649E+04  5.563166E+04 -1.406207E-12  2.833094E-12
       136  10 -2.622540E+05 -1.291685E+05 -7.828451E+04  9.014779E+04 -4.135903E-14  2.067952E-14
       136  11 -2.414985E+05 -1.434537E+05 -7.699043E+04  8.478620E+04 -8.271806E-14  8.271806E-14
       136  12 -2.201699E+05 -1.557050E+05 -7.517499E+04  7.883585E+04  7.237830E-14 -2.843433E-14
       136  13 -2.451805E+05 -1.221671E+05 -7.346951E+04  7.947332E+04  8.271806E-14  8.271806E-14
       136  14 -2.252736E+05 -1.355057E+05 -7.215586E+04  7.357739E+04 -3.722313E-13 -2.067952E-13
       136  15 -2.047641E+05 -1.468452E+05 -7.032187E+04  6.713720E+04 -4.135903E-14  0.000000E+00
       136  16 -2.313569E+05 -1.159182E+05 -6.945503E+04  6.903149E+04 -4.135903E-14  2.067952E-14
       136  17 -2.120681E+05 -1.282493E+05 -6.806348E+04  6.258034E+04 -6.203855E-14 -4.135903E-14
       136  18 -1.921619E+05 -1.386206E+05 -6.615649E+04  5.563166E+04 -5.686867E-14  4.911385E-14
       136  19 -2.622540E+05 -1.291685E+05 -7.828451E+04  9.014779E+04  1.964554E-12 -2.047272E-12
       136  20 -2.414985E+05 -1.434537E+05 -7.699043E+04  8.478620E+04  1.985233E-12 -1.395867E-12
       136  21 -2.201699E+05 -1.557050E+05 -7.517499E+04  7.883585E+04  1.447566E-12 -1.411377E-12
       136  22 -2.451805E+05 -1.221671E+05 -7.346951E+04  7.947332E+04  7.444626E-13 -2.150670E-12
       136  23 -2.252736E+05 -1.355057E+05 -7.215586E+04  7.357739E+04  9.098987E-13 -1.654361E-13
       136  24 -2.047641E+05 -1.468452E+05 -7.032187E+04  6.713720E+04  1.416547E-12 -2.316106E-12
       136  25 -2.313569E+05 -1.159182E+05 -6.945503E+04  6.903149E+04  9.926167E-13 -1.819797E-12
       136  26 -2.120681E+05 -1.282493E+05 -6.806348E+04  6.258034E+04  9.926167E-13 -1.571643E-12
       136  27 -1.921619E+05 -1.386206E+05 -6.615649E+04  5.563166E+04  1.406207E-12 -2.502221E-12
       137   1 -3.109249E+05 -8.475052E+04 -7.913508E+04  1.007236E+05 -7.754818E-14  1.370018E-13
       137   2 -2.922939E+05 -1.032207E+05 -7.910292E+04  9.664499E+04 -5.583469E-13  7.134433E-13
       137   3 -2.732255E+05 -1.199527E+05 -7.863564E+04  9.262713E+04 -1.096014E-12  1.261450E-12
       137   4 -2.921858E+05 -7.986349E+04 -7.440985E+04  8.955916E+04 -1.344168E-13  1.344168E-13
       137   5 -2.745879E+05 -9.775943E+04 -7.446947E+04  8.593962E+04  0.000000E+00  0.000000E+00
       137   6 -2.564987E+05 -1.136751E+05 -7.403476E+04  8.233534E+04 -4.963084E-13  1.075335E-12
       137   7 -2.756302E+05 -7.552245E+04 -7.023053E+04  7.838332E+04 -1.447566E-13  2.067952E-13
       137   8 -2.592840E+05 -9.289002E+04 -7.043480E+04  7.530331E+04 -3.308722E-13  5.790264E-13
       137   9 -2.424006E+05 -1.080211E+05 -7.008434E+04  7.219432E+04 -4.963084E-13  9.926167E-13
       137  10 -3.109249E+05 -8.475052E+04 -7.913508E+04  1.007236E+05  2.584939E-15 -1.033976E-14
       137  11 -2.922939E+05 -1.032207E+05 -7.910292E+04  9.664499E+04  5.169879E-14  3.877409E-14
       137  12 -2.732255E+05 -1.199527E+05 -7.863564E+04  9.262713E+04  5.169879E-15 -2.584939E-14
       137  13 -2.921858E+05 -7.986349E+04 -7.440985E+04  8.955916E+04  0.000000E+00 -2.067952E-14
       137  14 -2.745879E+05 -9.775943E+04 -7.446947E+04  8.593962E+04  0.000000E+00 -8.271806E-14
       137  15 -2.564987E+05 -1.136751E+05 -7.403476E+04  8.233534E+04 -6.203855E-14  2.584939E-14
       137  16 -2.756302E+05 -7.552245E+04 -7.023053E+04  7.838332E+04  0.000000E+00  0.000000E+00
       137  17 -2.592840E+05 -9.289002E+04 -7.043480E+04  7.530331E+04 -4.135903E-14 -2.067952E-14
       137  18 -2.424006E+05 -1.080211E+05 -7.008434E+04  7.219432E+04 -2.067952E-14  1.033976E-14
       137  19 -3.109249E+05 -8.475052E+04 -7.913508E+04  1.007236E+05  3.618915E-14 -9.564276E-14
       137  20 -2.922939E+05 -1.032207E+05 -7.910292E+04  9.664499E+04  3.929108E-13 -7.134433E-13
       137  21 -2.732255E+05 -1.199527E+05 -7.863564E+04  9.262713E+04  1.096014E-12 -1.261450E-12
       137  22 -2.921858E+05 -7.986349E+04 -7.440985E+04  8.955916E+04  9.305782E-14 -2.171349E-13
       137  23 -2.745879E+05 -9.775943E+04 -7.446947E+04  8.593962E+04  1.654361E-13  0.000000E+00
       137  24 -2.564987E+05 -1.136751E+05 -7.403476E+04  8.233534E+04  4.963084E-13 -1.075335E-12
       137  25 -2.756302E+05 -7.552245E+04 -7.023053E+04  7.838332E+04  1.447566E-13 -2.067952E-13
       137  26 -2.592840E+05 -9.289002E+04 -7.043480E+04  7.530331E+04  3.308722E-13 -7.444626E-13
       137  27 -2.424006E+05 -1.080211E+05 -7.008434E+04  7.219432E+04  8.271806E-13 -1.158053E-12
       138   1 -1.261222E+05 -8.878327E+04 -4.298109E+04 -1.432054E+03 -1.364848E-12  1.866326E-12
       138   2 -1.287509E+05 -8.964497E+04 -4.367917E+04  3.600052E+02 -1.054655E-12  1.633682E-12
       138   3 -1.311703E+05 -9.067544E+04 -4.436915E+04  2.080806E+03 -1.235601E-12  1.903162E-12
       138   4 -1.212639E+05 -9.204065E+04 -4.266091E+04 -7.761183E+02 -1.447566E-12  1.654361E-12
       138   5 -1.239265E+05 -9.292229E+04 -4.336975E+04  9.916550E+02  4.135903E-14  4.135903E-14
       138   6 -1.263950E+05 -9.399086E+04 -4.407717E+04  2.692987E+03 -1.561303E-12  1.915440E-12
       138   7 -1.166785E+05 -9.542096E+04 -4.241990E+04 -2.635504E+01 -1.737079E-12  2.192029E-12
       138   8 -1.193528E+05 -9.632097E+04 -4.313476E+04  1.719298E+03 -1.364848E-12  1.819797E-12
       138   9 -1.218484E+05 -9.742392E+04 -4.385447E+04  3.402510E+03 -1.530284E-12  2.212708E-12
       138  10 -1.261222E+05 -8.878327E+04 -4.298109E+04 -1.432054E+03 -1.033976E-14  5.169879E-15
       138  11 -1.287509E+05 -8.964497E+04 -4.367917E+04  3.600052E+02 -2.067952E-14  1.550964E-14
       138  12 -1.311703E+05 -9.067544E+04 -4.436915E+04  2.080806E+03  2.455692E-14 -1.938705E-15
       138  13 -1.212639E+05 -9.204065E+04 -4.266091E+04 -7.761183E+02  4.135903E-14 -1.033976E-14
       138  14 -1.239265E+05 -9.292229E+04 -4.336975E+04  9.916550E+02 -2.067952E-14  0.000000E+00
       138  15 -1.263950E+05 -9.399086E+04 -4.407717E+04  2.692987E+03 -3.618915E-14 -7.754818E-15
       138  16 -1.166785E+05 -9.542096E+04 -4.241990E+04 -2.635504E+01  1.033976E-14  5.169879E-15
       138  17 -1.193528E+05 -9.632097E+04 -4.313476E+04  1.719298E+03  4.135903E-14  7.754818E-15
       138  18 -1.218484E+05 -9.742392E+04 -4.385447E+04  3.402510E+03  1.163223E-14  3.231174E-15
       138  19 -1.261222E+05 -8.878327E+04 -4.298109E+04 -1.432054E+03  1.364848E-12 -1.907685E-12
       138  20 -1.287509E+05 -8.964497E+04 -4.367917E+04  3.600052E+02  1.385528E-12 -1.675041E-12
       138  21 -1.311703E+05 -9.067544E+04 -4.436915E+04  2.080806E+03  1.235601E-12 -1.861803E-12
       138  22 -1.212639E+05 -9.204065E+04 -4.266091E+04 -7.761183E+02  1.613002E-12 -1.737079E-12
       138  23 -1.239265E+05 -9.292229E+04 -4.336975E+04  9.916550E+02  1.240771E-13  4.135903E-14
       138  24 -1.263950E+05 -9.399086E+04 -4.407717E+04  2.692987E+03  1.230431E-12 -1.750004E-12
       138  25 -1.166785E+05 -9.542096E+04 -4.241990E+04 -2.635504E+01  1.737079E-12 -2.192029E-12
       138  26 -1.193528E+05 -9.632097E+04 -4.313476E+04  1.719298E+03  1.364848E-12 -1.943874E-12
       138  27 -1.218484E+05 -9.742392E+04 -4.385447E+04  3.402510E+03  1.695720E-12 -2.254067E-12
       139   1 -1.326456E+05 -9.126052E+04 -4.478122E+04  3.067873E+03 -1.468246E-12  1.881836E-12
       139   2 -1.353576E+05 -9.235128E+04 -4.554178E+04  4.775172E+03 -7.858216E-13  1.654361E-12
       139   3 -1.378799E+05 -9.357602E+04 -4.629118E+04  6.401783E+03 -9.435029E-13  1.894114E-12
       139   4 -1.278190E+05 -9.461999E+04 -4.448779E+04  3.651384E+03 -1.406207E-12  1.799118E-12
       139   5 -1.301846E+05 -9.570666E+04 -4.517826E+04  5.211788E+03 -2.895132E-13  1.033976E-14
       139   6 -1.324131E+05 -9.693014E+04 -4.586864E+04  6.707047E+03 -5.997059E-13  1.768099E-12
       139   7 -1.232476E+05 -9.814430E+04 -4.427837E+04  4.356591E+03 -1.819797E-12  2.150670E-12
       139   8 -1.253166E+05 -9.925792E+04 -4.491491E+04  5.790420E+03 -1.323489E-12  2.005913E-12
       139   9 -1.272966E+05 -1.005064E+05 -4.556061E+04  7.172443E+03 -1.385528E-12  2.295426E-12
       139  10 -1.326456E+05 -9.126052E+04 -4.478122E+04  3.067873E+03  0.000000E+00  1.033976E-14
       139  11 -1.353576E+05 -9.235128E+04 -4.554178E+04  4.775172E+03 -6.203855E-14  5.169879E-15
       139  12 -1.378799E+05 -9.357602E+04 -4.629118E+04  6.401783E+03 -1.292470E-14 -6.462349E-15
       139  13 -1.278190E+05 -9.461999E+04 -4.448779E+04  3.651384E+03  0.000000E+00  2.067952E-14
       139  14 -1.301846E+05 -9.570666E+04 -4.517826E+04  5.211788E+03 -2.067952E-14 -1.550964E-14
       139  15 -1.324131E+05 -9.693014E+04 -4.586864E+04  6.707047E+03  1.033976E-14  1.163223E-14
       139  16 -1.232476E+05 -9.814430E+04 -4.427837E+04  4.356591E+03  6.203855E-14  5.169879E-15
       139  17 -1.253166E+05 -9.925792E+04 -4.491491E+04  5.790420E+03  2.067952E-14  2.584939E-15
       139  18 -1.272966E+05 -1.005064E+05 -4.556061E+04  7.172443E+03  2.067952E-14 -1.938705E-15
       139  19 -1.326456E+05 -9.126052E+04 -4.478122E+04  3.067873E+03  1.468246E-12 -1.881836E-12
       139  20 -1.353576E+05 -9.235128E+04 -4.554178E+04  4.775172E+03  1.282130E-12 -1.654361E-12
       139  21 -1.378799E+05 -9.357602E+04 -4.629118E+04  6.401783E+03  1.439811E-12 -1.894114E-12
       139  22 -1.278190E+05 -9.461999E+04 -4.448779E+04  3.651384E+03  1.406207E-12 -1.799118E-12
       139  23 -1.301846E+05 -9.570666E+04 -4.517826E+04  5.211788E+03 -4.135903E-14 -1.033976E-14
       139  24 -1.324131E+05 -9.693014E+04 -4.586864E+04  6.707047E+03  1.261450E-12 -1.809458E-12
       139  25 -1.232476E+05 -9.814430E+04 -4.427837E+04  4.356591E+03  1.819797E-12 -2.150670E-12
       139  26 -1.253166E+05 -9.925792E+04 -4.491491E+04  5.790420E+03  9.926167E-13 -2.005913E-12
       139  27 -1.272966E+05 -1.005064E+05 -4.556061E+04  7.172443E+03  1.550964E-12 -2.254067E-12
       140   1 -1.203955E+05 -1.001258E+05 -4.410426E+04  4.855629E+03 -1.964554E-12  2.192029E-12
       140   2 -1.222861E+05 -1.013076E+05 -4.471873E+04  6.226121E+03 -1.457906E-12  2.098971E-12
       140   3 -1.241701E+05 -1.025327E+05 -4.534058E+04  7.578651E+03 -2.235973E-12  2.322568E-12
       140   4 -1.150649E+05 -1.036482E+05 -4.374262E+04  5.721642E+03 -1.406207E-12  2.316106E-12
       140   5 -1.166821E+05 -1.048644E+05 -4.430930E+04  7.063990E+03 -2.481542E-13 -8.271806E-14
       140   6 -1.183299E+05 -1.061244E+05 -4.489086E+04  8.382730E+03 -2.109311E-12  2.166179E-12
       140   7 -1.099318E+05 -1.073179E+05 -4.344994E+04  6.690599E+03 -2.150670E-12  2.564260E-12
       140   8 -1.113311E+05 -1.085842E+05 -4.398308E+04  8.020931E+03 -1.985233E-12  2.398824E-12
       140   9 -1.127954E+05 -1.098928E+05 -4.453764E+04  9.319539E+03 -2.522901E-12  2.688337E-12
       140  10 -1.203955E+05 -1.001258E+05 -4.410426E+04  4.855629E+03 -2.067952E-14  1.033976E-14
       140  11 -1.222861E+05 -1.013076E+05 -4.471873E+04  6.226121E+03 -7.237830E-14  5.169879E-15
       140  12 -1.241701E+05 -1.025327E+05 -4.534058E+04  7.578651E+03  5.169879E-15  2.584939E-15
       140  13 -1.150649E+05 -1.036482E+05 -4.374262E+04  5.721642E+03  0.000000E+00  0.000000E+00
       140  14 -1.166821E+05 -1.048644E+05 -4.430930E+04  7.063990E+03 -1.240771E-13  0.000000E+00
       140  15 -1.183299E+05 -1.061244E+05 -4.489086E+04  8.382730E+03 -1.033976E-14  5.169879E-15
       140  16 -1.099318E+05 -1.073179E+05 -4.344994E+04  6.690599E+03 -4.135903E-14  0.000000E+00
       140  17 -1.113311E+05 -1.085842E+05 -4.398308E+04  8.020931E+03  5.169879E-14  5.169879E-15
       140  18 -1.127954E+05 -1.098928E+05 -4.453764E+04  9.319539E+03  1.292470E-14 -5.169879E-15
       140  19 -1.203955E+05 -1.001258E+05 -4.410426E+04  4.855629E+03  1.799118E-12 -2.274747E-12
       140  20 -1.222861E+05 -1.013076E+05 -4.471873E+04  6.226121E+03  1.457906E-12 -2.016253E-12
       140  21 -1.241701E+05 -1.025327E+05 -4.534058E+04  7.578651E+03  1.905100E-12 -2.322568E-12
       140  22 -1.150649E+05 -1.036482E+05 -4.374262E+04  5.721642E+03  1.737079E-12 -2.233388E-12
       140  23 -1.166821E+05 -1.048644E+05 -4.430930E+04  7.063990E+03 -8.271806E-14  8.271806E-14
       140  24 -1.183299E+05 -1.061244E+05 -4.489086E+04  8.382730E+03  1.613002E-12 -2.248897E-12
       140  25 -1.099318E+05 -1.073179E+05 -4.344994E+04  6.690599E+03  2.150670E-12 -2.564260E-12
       140  26 -1.113311E+05 -1.085842E+05 -4.398308E+04  8.020931E+03  1.819797E-12 -2.398824E-12
       140  27 -1.127954E+05 -1.098928E+05 -4.453764E+04  9.319539E+03  2.357465E-12 -2.688337E-12
       141   1 -1.139749E+05 -9.740902E+04 -4.227679E+04  6.353634E+02 -1.933535E-12  2.223048E-12
       141   2 -1.165518E+05 -9.835169E+04 -4.298069E+04  2.309627E+03 -1.602662E-12  2.057612E-12
       141   3 -1.190456E+05 -9.941525E+04 -4.369218E+04  3.947454E+03 -1.769391E-12  2.206246E-12
       141   4 -1.100397E+05 -1.007089E+05 -4.214971E+04  1.908578E+03 -1.778438E-12  2.067952E-12
       141   5 -1.120322E+05 -1.017740E+05 -4.276123E+04  3.428673E+03 -2.895132E-13 -6.203855E-14
       141   6 -1.139970E+05 -1.029603E+05 -4.339146E+04  4.909464E+03 -1.866326E-12  2.150670E-12
       141   7 -1.060145E+05 -1.038745E+05 -4.197780E+04  3.115412E+03 -2.067952E-12  2.481542E-12
       141   8 -1.074701E+05 -1.051028E+05 -4.251457E+04  4.501444E+03 -2.026593E-12  2.440183E-12
       141   9 -1.089555E+05 -1.064472E+05 -4.308053E+04  5.842097E+03 -2.274747E-12  2.543580E-12
       141  10 -1.139749E+05 -9.740902E+04 -4.227679E+04  6.353634E+02 -1.033976E-14  0.000000E+00
       141  11 -1.165518E+05 -9.835169E+04 -4.298069E+04  2.309627E+03  2.067952E-14  0.000000E+00
       141  12 -1.190456E+05 -9.941525E+04 -4.369218E+04  3.947454E+03  1.033976E-14 -1.809458E-14
       141  13 -1.100397E+05 -1.007089E+05 -4.214971E+04  1.908578E+03 -8.271806E-14  2.067952E-14
       141  14 -1.120322E+05 -1.017740E+05 -4.276123E+04  3.428673E+03  0.000000E+00  2.067952E-14
       141  15 -1.139970E+05 -1.029603E+05 -4.339146E+04  4.909464E+03  4.135903E-14  2.326445E-14
       141  16 -1.060145E+05 -1.038745E+05 -4.197780E+04  3.115412E+03  1.033976E-14 -1.033976E-14
       141  17 -1.074701E+05 -1.051028E+05 -4.251457E+04  4.501444E+03  5.169879E-14 -5.169879E-15
       141  18 -1.089555E+05 -1.064472E+05 -4.308053E+04  5.842097E+03  3.360421E-14 -5.169879E-15
       141  19 -1.139749E+05 -9.740902E+04 -4.227679E+04  6.353634E+02  1.768099E-12 -2.305766E-12
       141  20 -1.165518E+05 -9.835169E+04 -4.298069E+04  2.309627E+03  1.602662E-12 -1.974894E-12
       141  21 -1.190456E+05 -9.941525E+04 -4.369218E+04  3.947454E+03  1.934827E-12 -2.330323E-12
       141  22 -1.100397E+05 -1.007089E+05 -4.214971E+04  1.908578E+03  1.778438E-12 -2.150670E-12
       141  23 -1.120322E+05 -1.017740E+05 -4.276123E+04  3.428673E+03  2.895132E-13  6.203855E-14
       141  24 -1.139970E+05 -1.029603E+05 -4.339146E+04  4.909464E+03  1.700890E-12 -2.233388E-12
       141  25 -1.060145E+05 -1.038745E+05 -4.197780E+04  3.115412E+03  2.233388E-12 -2.398824E-12
       141  26 -1.074701E+05 -1.051028E+05 -4.251457E+04  4.501444E+03  2.357465E-12 -2.192029E-12
       141  27 -1.089555E+05 -1.064472E+05 -4.308053E+04  5.842097E+03  2.274747E-12 -2.626298E-12
       142   1 -1.390988E+05 -9.442237E+04 -4.670423E+04  7.326324E+03 -1.633682E-12  1.907685E-12
       142   2 -1.408231E+05 -9.604482E+04 -4.737358E+04  8.819463E+03 -1.147713E-12  1.721570E-12
       142   3 -1.424383E+05 -9.780825E+04 -4.804931E+04  1.023087E+04 -1.096014E-12  1.967785E-12
       142   4 -1.335248E+05 -9.771849E+04 -4.624865E+04  7.555598E+03 -9.926167E-13  1.881836E-12
       142   5 -1.351553E+05 -9.922023E+04 -4.687511E+04  8.948722E+03 -8.271806E-14  1.033976E-14
       142   6 -1.366894E+05 -1.008754E+05 -4.751295E+04  1.026775E+04 -5.480072E-13  1.887006E-12
       142   7 -1.284103E+05 -1.013386E+05 -4.594978E+04  8.010032E+03 -2.150670E-12  2.150670E-12
       142   8 -1.299551E+05 -1.027187E+05 -4.653475E+04  9.304097E+03 -1.240771E-12  1.964554E-12
       142   9 -1.314152E+05 -1.042651E+05 -4.713604E+04  1.053176E+04 -1.799118E-12  2.300596E-12
       142  10 -1.390988E+05 -9.442237E+04 -4.670423E+04  7.326324E+03  0.000000E+00  0.000000E+00
       142  11 -1.408231E+05 -9.604482E+04 -4.737358E+04  8.819463E+03 -6.203855E-14  1.292470E-15
       142  12 -1.424383E+05 -9.780825E+04 -4.804931E+04  1.023087E+04  1.033976E-14  1.938705E-15
       142  13 -1.335248E+05 -9.771849E+04 -4.624865E+04  7.555598E+03  0.000000E+00  0.000000E+00
       142  14 -1.351553E+05 -9.922023E+04 -4.687511E+04  8.948722E+03 -8.271806E-14  1.033976E-14
       142  15 -1.366894E+05 -1.008754E+05 -4.751295E+04  1.026775E+04  1.033976E-14 -3.877409E-15
       142  16 -1.284103E+05 -1.013386E+05 -4.594978E+04  8.010032E+03  2.067952E-14 -5.169879E-15
       142  17 -1.299551E+05 -1.027187E+05 -4.653475E+04  9.304097E+03 -4.135903E-14  1.421717E-14
       142  18 -1.314152E+05 -1.042651E+05 -4.713604E+04  1.053176E+04  5.169879E-15  3.231174E-16
       142  19 -1.390988E+05 -9.442237E+04 -4.670423E+04  7.326324E+03  1.468246E-12 -1.907685E-12
       142  20 -1.408231E+05 -9.604482E+04 -4.737358E+04  8.819463E+03  8.168409E-13 -1.716400E-12
       142  21 -1.424383E+05 -9.780825E+04 -4.804931E+04  1.023087E+04  7.651421E-13 -1.962615E-12
       142  22 -1.335248E+05 -9.771849E+04 -4.624865E+04  7.555598E+03  1.323489E-12 -1.840477E-12
       142  23 -1.351553E+05 -9.922023E+04 -4.687511E+04  8.948722E+03  8.271806E-14  1.033976E-14
       142  24 -1.366894E+05 -1.008754E+05 -4.751295E+04  1.026775E+04  2.171349E-13 -1.887006E-12
       142  25 -1.284103E+05 -1.013386E+05 -4.594978E+04  8.010032E+03  1.654361E-12 -2.233388E-12
       142  26 -1.299551E+05 -1.027187E+05 -4.653475E+04  9.304097E+03  1.240771E-12 -2.047272E-12
       142  27 -1.314152E+05 -1.042651E+05 -4.713604E+04  1.053176E+04  1.468246E-12 -2.259237E-12
       143   1 -1.430968E+05 -9.885985E+04 -4.839134E+04  1.097965E+04 -1.199412E-12  1.990403E-12
       143   2 -1.439118E+05 -1.007547E+05 -4.893330E+04  1.215114E+04 -1.406207E-12  1.782316E-12
       143   3 -1.445938E+05 -1.028016E+05 -4.947907E+04  1.323459E+04 -1.116694E-12  2.105110E-12
       143   4 -1.372971E+05 -1.018234E+05 -4.782409E+04  1.094383E+04 -9.098987E-13  1.912855E-12
       143   5 -1.381098E+05 -1.035079E+05 -4.832353E+04  1.199037E+04 -2.481542E-13  2.584939E-14
       143   6 -1.387857E+05 -1.053600E+05 -4.882914E+04  1.295882E+04 -9.512577E-13  1.951629E-12
       143   7 -1.321328E+05 -1.052165E+05 -4.746986E+04  1.121106E+04 -1.819797E-12  2.274747E-12
       143   8 -1.329243E+05 -1.066812E+05 -4.792111E+04  1.212530E+04 -9.098987E-13  2.078291E-12
       143   9 -1.335773E+05 -1.083303E+05 -4.838152E+04  1.297224E+04 -1.550964E-12  2.365220E-12
       143  10 -1.430968E+05 -9.885985E+04 -4.839134E+04  1.097965E+04  0.000000E+00  0.000000E+00
       143  11 -1.439118E+05 -1.007547E+05 -4.893330E+04  1.215114E+04  4.135903E-14  1.292470E-15
       143  12 -1.445938E+05 -1.028016E+05 -4.947907E+04  1.323459E+04 -3.101927E-14 -4.685203E-15
       143  13 -1.372971E+05 -1.018234E+05 -4.782409E+04  1.094383E+04 -8.271806E-14  0.000000E+00
       143  14 -1.381098E+05 -1.035079E+05 -4.832353E+04  1.199037E+04  4.135903E-14 -1.938705E-15
       143  15 -1.387857E+05 -1.053600E+05 -4.882914E+04  1.295882E+04 -1.033976E-14 -4.362085E-15
       143  16 -1.321328E+05 -1.052165E+05 -4.746986E+04  1.121106E+04  0.000000E+00 -2.584939E-15
       143  17 -1.329243E+05 -1.066812E+05 -4.792111E+04  1.212530E+04 -8.271806E-14  0.000000E+00
       143  18 -1.335773E+05 -1.083303E+05 -4.838152E+04  1.297224E+04  0.000000E+00  1.211690E-15
       143  19 -1.430968E+05 -9.885985E+04 -4.839134E+04  1.097965E+04  1.530284E-12 -1.980064E-12
       143  20 -1.439118E+05 -1.007547E+05 -4.893330E+04  1.215114E+04  7.444626E-13 -1.823675E-12
       143  21 -1.445938E+05 -1.028016E+05 -4.947907E+04  1.323459E+04  7.858216E-13 -2.063751E-12
       143  22 -1.372971E+05 -1.018234E+05 -4.782409E+04  1.094383E+04  9.098987E-13 -1.923195E-12
       143  23 -1.381098E+05 -1.035079E+05 -4.832353E+04  1.199037E+04 -8.271806E-14  5.169879E-15
       143  24 -1.387857E+05 -1.053600E+05 -4.882914E+04  1.295882E+04  9.512577E-13 -1.972309E-12
       143  25 -1.321328E+05 -1.052165E+05 -4.746986E+04  1.121106E+04  1.158053E-12 -2.274747E-12
       143  26 -1.329243E+05 -1.066812E+05 -4.792111E+04  1.212530E+04  9.098987E-13 -2.078291E-12
       143  27 -1.335773E+05 -1.083303E+05 -4.838152E+04  1.297224E+04  1.550964E-12 -2.370389E-12
       144   1 -1.289592E+05 -1.071497E+05 -4.722179E+04  1.158689E+04 -2.026593E-12  2.357465E-12
       144   2 -1.297467E+05 -1.085350E+05 -4.765633E+04  1.247248E+04 -8.581999E-13  2.158424E-12
       144   3 -1.305847E+05 -1.099708E+05 -4.811110E+04  1.332670E+04 -1.504435E-12  2.447291E-12
       144   4 -1.229887E+05 -1.106426E+05 -4.672626E+04  1.257453E+04 -1.737079E-12  2.212708E-12
       144   5 -1.238613E+05 -1.118635E+05 -4.714495E+04  1.353292E+04  1.654361E-13 -2.067952E-14
       144   6 -1.247941E+05 -1.131571E+05 -4.759024E+04  1.445000E+04 -1.706060E-12  2.305766E-12
       144   7 -1.176897E+05 -1.146215E+05 -4.646225E+04  1.391770E+04 -2.316106E-12  2.812414E-12
       144   8 -1.186596E+05 -1.156583E+05 -4.686358E+04  1.494023E+04 -1.902515E-12  2.460862E-12
       144   9 -1.196985E+05 -1.167929E+05 -4.729828E+04  1.591215E+04 -1.861156E-12  2.667657E-12
       144  10 -1.289592E+05 -1.071497E+05 -4.722179E+04  1.158689E+04 -4.135903E-14  5.169879E-15
       144  11 -1.297467E+05 -1.085350E+05 -4.765633E+04  1.247248E+04 -2.067952E-14  0.000000E+00
       144  12 -1.305847E+05 -1.099708E+05 -4.811110E+04  1.332670E+04  5.169879E-15  2.584939E-15
       144  13 -1.229887E+05 -1.106426E+05 -4.672626E+04  1.257453E+04  0.000000E+00  0.000000E+00
       144  14 -1.238613E+05 -1.118635E+05 -4.714495E+04  1.353292E+04  1.654361E-13 -1.550964E-14
       144  15 -1.247941E+05 -1.131571E+05 -4.759024E+04  1.445000E+04 -8.271806E-14  0.000000E+00
       144  16 -1.176897E+05 -1.146215E+05 -4.646225E+04  1.391770E+04  0.000000E+00 -5.169879E-15
       144  17 -1.186596E+05 -1.156583E+05 -4.686358E+04  1.494023E+04 -1.861156E-13 -7.754818E-15
       144  18 -1.196985E+05 -1.167929E+05 -4.729828E+04  1.591215E+04  3.618915E-14 -5.816114E-15
       144  19 -1.289592E+05 -1.071497E+05 -4.722179E+04  1.158689E+04  2.026593E-12 -2.357465E-12
       144  20 -1.297467E+05 -1.085350E+05 -4.765633E+04  1.247248E+04  1.189072E-12 -2.137745E-12
       144  21 -1.305847E+05 -1.099708E+05 -4.811110E+04  1.332670E+04  1.504435E-12 -2.452461E-12
       144  22 -1.229887E+05 -1.106426E+05 -4.672626E+04  1.257453E+04  1.737079E-12 -2.254067E-12
       144  23 -1.238613E+05 -1.118635E+05 -4.714495E+04  1.353292E+04 -1.654361E-13 -2.067952E-14
       144  24 -1.247941E+05 -1.131571E+05 -4.759024E+04  1.445000E+04  1.706060E-12 -2.326445E-12
       144  25 -1.176897E+05 -1.146215E+05 -4.646225E+04  1.391770E+04  2.646978E-12 -2.729696E-12
       144  26 -1.186596E+05 -1.156583E+05 -4.686358E+04  1.494023E+04  1.571643E-12 -2.460862E-12
       144  27 -1.196985E+05 -1.167929E+05 -4.729828E+04  1.591215E+04  2.192029E-12 -2.709017E-12
       145   1 -1.252348E+05 -1.033636E+05 -4.571968E+04  8.403007E+03 -2.212708E-12  2.274747E-12
       145   2 -1.266877E+05 -1.047764E+05 -4.629281E+04  9.681972E+03 -1.271790E-12  2.062782E-12
       145   3 -1.282210E+05 -1.062498E+05 -4.689417E+04  1.091975E+04 -2.168764E-12  2.372974E-12
       145   4 -1.193171E+05 -1.069290E+05 -4.524920E+04  9.195307E+03 -1.571643E-12  2.233388E-12
       145   5 -1.207657E+05 -1.083697E+05 -4.582708E+04  1.058174E+04  0.000000E+00 -8.271806E-14
       145   6 -1.223069E+05 -1.098775E+05 -4.643688E+04  1.192161E+04 -1.292470E-12  2.279917E-12
       145   7 -1.138128E+05 -1.107795E+05 -4.491845E+04  1.020294E+04 -1.985233E-12  2.646978E-12
       145   8 -1.152701E+05 -1.122560E+05 -4.550522E+04  1.169913E+04 -1.654361E-12  2.398824E-12
       145   9 -1.168299E+05 -1.138050E+05 -4.612698E+04  1.314328E+04 -2.233388E-12  2.729696E-12
       145  10 -1.252348E+05 -1.033636E+05 -4.571968E+04  8.403007E+03  2.067952E-14 -1.033976E-14
       145  11 -1.266877E+05 -1.047764E+05 -4.629281E+04  9.681972E+03  1.033976E-14  2.584939E-15
       145  12 -1.282210E+05 -1.062498E+05 -4.689417E+04  1.091975E+04  4.135903E-14 -5.169879E-15
       145  13 -1.193171E+05 -1.069290E+05 -4.524920E+04  9.195307E+03  0.000000E+00 -2.067952E-14
       145  14 -1.207657E+05 -1.083697E+05 -4.582708E+04  1.058174E+04 -8.271806E-14  0.000000E+00
       145  15 -1.223069E+05 -1.098775E+05 -4.643688E+04  1.192161E+04  8.271806E-14 -2.584939E-15
       145  16 -1.138128E+05 -1.107795E+05 -4.491845E+04  1.020294E+04  0.000000E+00  1.550964E-14
       145  17 -1.152701E+05 -1.122560E+05 -4.550522E+04  1.169913E+04 -2.067952E-14  0.000000E+00
       145  18 -1.168299E+05 -1.138050E+05 -4.612698E+04  1.314328E+04  4.911385E-14 -1.292470E-14
       145  19 -1.252348E+05 -1.033636E+05 -4.571968E+04  8.403007E+03  1.716400E-12 -2.274747E-12
       145  20 -1.266877E+05 -1.047764E+05 -4.629281E+04  9.681972E+03  1.602662E-12 -2.021423E-12
       145  21 -1.282210E+05 -1.062498E+05 -4.689417E+04  1.091975E+04  1.837892E-12 -2.372974E-12
       145  22 -1.193171E+05 -1.069290E+05 -4.524920E+04  9.195307E+03  1.902515E-12 -2.233388E-12
       145  23 -1.207657E+05 -1.083697E+05 -4.582708E+04  1.058174E+04  0.000000E+00 -4.135903E-14
       145  24 -1.223069E+05 -1.098775E+05 -4.643688E+04  1.192161E+04  1.623342E-12 -2.279917E-12
       145  25 -1.138128E+05 -1.107795E+05 -4.491845E+04  1.020294E+04  2.316106E-12 -2.812414E-12
       145  26 -1.152701E+05 -1.122560E+05 -4.550522E+04  1.169913E+04  1.819797E-12 -2.316106E-12
       145  27 -1.168299E+05 -1.138050E+05 -4.612698E+04  1.314328E+04  1.571643E-12 -2.812414E-12
       146   1 -5.383289E+05 -1.974142E+05 -1.471486E+05  1.759834E+05  6.617445E-13  1.819797E-12
       146   2 -5.487796E+05 -1.810991E+05 -1.459757E+05  1.733988E+05  1.819797E-12  6.617445E-13
       146   3 -5.604480E+05 -1.692434E+05 -1.459383E+05  1.702910E+05 -9.512577E-13  5.997059E-13
       146   4 -5.577062E+05 -1.966016E+05 -1.508616E+05  1.775096E+05  1.323489E-12 -1.323489E-12
       146   5 -5.699318E+05 -1.810938E+05 -1.502051E+05  1.745409E+05 -1.985233E-12  1.323489E-12
       146   6 -5.831727E+05 -1.694196E+05 -1.505185E+05  1.712064E+05 -3.308722E-12  9.098987E-13
       146   7 -5.720644E+05 -1.949268E+05 -1.533982E+05  1.788552E+05 -2.646978E-12  2.646978E-12
       146   8 -5.857688E+05 -1.799246E+05 -1.531387E+05  1.756179E+05  3.970467E-12  6.617445E-13
       146   9 -6.003246E+05 -1.682385E+05 -1.537126E+05  1.721442E+05  6.617445E-13 -9.926167E-13
       146  10 -5.383289E+05 -1.974142E+05 -1.471486E+05  1.759834E+05 -3.308722E-13  0.000000E+00
       146  11 -5.487796E+05 -1.810991E+05 -1.459757E+05  1.733988E+05 -3.308722E-13 -8.271806E-14
       146  12 -5.604480E+05 -1.692434E+05 -1.459383E+05  1.702910E+05  4.135903E-14  8.271806E-14
       146  13 -5.577062E+05 -1.966016E+05 -1.508616E+05  1.775096E+05 -6.617445E-13 -3.308722E-13
       146  14 -5.699318E+05 -1.810938E+05 -1.502051E+05  1.745409E+05 -6.617445E-13 -3.308722E-13
       146  15 -5.831727E+05 -1.694196E+05 -1.505185E+05  1.712064E+05  1.654361E-13  0.000000E+00
       146  16 -5.720644E+05 -1.949268E+05 -1.533982E+05  1.788552E+05  3.308722E-13  0.000000E+00
       146  17 -5.857688E+05 -1.799246E+05 -1.531387E+05  1.756179E+05  4.963084E-13 -1.654361E-13
       146  18 -6.003246E+05 -1.682385E+05 -1.537126E+05  1.721442E+05 -2.067952E-13 -3.308722E-13
       146  19 -5.383289E+05 -1.974142E+05 -1.471486E+05  1.759834E+05  1.985233E-12 -4.963084E-13
       146  20 -5.487796E+05 -1.810991E+05 -1.459757E+05  1.733988E+05 -4.963084E-13  6.617445E-13
       146  21 -5.604480E+05 -1.692434E+05 -1.459383E+05  1.702910E+05  2.274747E-12 -5.997059E-13
       146  22 -5.577062E+05 -1.966016E+05 -1.508616E+05  1.775096E+05 -1.323489E-12  1.323489E-12
       146  23 -5.699318E+05 -1.810938E+05 -1.502051E+05  1.745409E+05  1.985233E-12  0.000000E+00
       146  24 -5.831727E+05 -1.694196E+05 -1.505185E+05  1.712064E+05  6.617445E-13  4.135903E-13
       146  25 -5.720644E+05 -1.949268E+05 -1.533982E+05  1.788552E+05  2.646978E-12 -2.646978E-12
       146  26 -5.857688E+05 -1.799246E+05 -1.531387E+05  1.756179E+05  1.323489E-12 -3.308722E-12
       146  27 -6.003246E+05 -1.682385E+05 -1.537126E+05  1.721442E+05 -1.985233E-12 -3.308722E-13
       147   1 -5.661526E+05 -1.627124E+05 -1.457730E+05  1.701473E+05 -1.158053E-12  4.963084E-13
       147   2 -5.686313E+05 -1.513979E+05 -1.440058E+05  1.725952E+05  8.271806E-14 -6.203855E-13
       147   3 -5.736421E+05 -1.449860E+05 -1.437256E+05  1.731472E+05 -3.515518E-13  1.964554E-13
       147   4 -5.913886E+05 -1.641354E+05 -1.511048E+05  1.714618E+05 -1.323489E-12  9.926167E-13
       147   5 -5.978004E+05 -1.562730E+05 -1.508147E+05  1.742001E+05  3.308722E-13  6.617445E-13
       147   6 -6.065934E+05 -1.527401E+05 -1.518667E+05  1.750647E+05 -1.654361E-13 -2.481542E-13
       147   7 -6.092378E+05 -1.638986E+05 -1.546273E+05  1.716237E+05  0.000000E+00  0.000000E+00
       147   8 -6.203266E+05 -1.595657E+05 -1.559785E+05  1.748244E+05 -6.617445E-13 -6.617445E-13
       147   9 -6.335373E+05 -1.590056E+05 -1.585086E+05  1.761457E+05 -3.308722E-13 -8.271806E-14
       147  10 -5.661526E+05 -1.627124E+05 -1.457730E+05  1.701473E+05  3.308722E-13  0.000000E+00
       147  11 -5.686313E+05 -1.513979E+05 -1.440058E+05  1.725952E+05  0.000000E+00  8.271806E-14
       147  12 -5.736421E+05 -1.449860E+05 -1.437256E+05  1.731472E+05 -2.067952E-14  1.033976E-14
       147  13 -5.913886E+05 -1.641354E+05 -1.511048E+05  1.714618E+05  3.308722E-13  0.000000E+00
       147  14 -5.978004E+05 -1.562730E+05 -1.508147E+05  1.742001E+05  0.000000E+00  0.000000E+00
       147  15 -6.065934E+05 -1.527401E+05 -1.518667E+05  1.750647E+05  0.000000E+00  8.271806E-14
       147  16 -6.092378E+05 -1.638986E+05 -1.546273E+05  1.716237E+05  1.654361E-13  0.000000E+00
       147  17 -6.203266E+05 -1.595657E+05 -1.559785E+05  1.748244E+05  8.271806E-14  0.000000E+00
       147  18 -6.335373E+05 -1.590056E+05 -1.585086E+05  1.761457E+05 -2.067952E-14 -2.067952E-14
       147  19 -5.661526E+05 -1.627124E+05 -1.457730E+05  1.701473E+05 -1.654361E-13 -4.963084E-13
       147  20 -5.686313E+05 -1.513979E+05 -1.440058E+05  1.725952E+05 -8.271806E-14 -7.031035E-13
       147  21 -5.736421E+05 -1.449860E+05 -1.437256E+05  1.731472E+05  3.515518E-13 -3.101927E-14
       147  22 -5.913886E+05 -1.641354E+05 -1.511048E+05  1.714618E+05  0.000000E+00  3.308722E-13
       147  23 -5.978004E+05 -1.562730E+05 -1.508147E+05  1.742001E+05  3.308722E-13  0.000000E+00
       147  24 -6.065934E+05 -1.527401E+05 -1.518667E+05  1.750647E+05  0.000000E+00  8.271806E-14
       147  25 -6.092378E+05 -1.638986E+05 -1.546273E+05  1.716237E+05  0.000000E+00  6.617445E-13
       147  26 -6.203266E+05 -1.595657E+05 -1.559785E+05  1.748244E+05  6.617445E-13  0.000000E+00
       147  27 -6.335373E+05 -1.590056E+05 -1.585086E+05  1.761457E+05  1.654361E-13  8.271806E-14
       148   1 -6.179935E+05 -1.649422E+05 -1.565871E+05  1.715585E+05 -1.323489E-12  1.654361E-12
       148   2 -6.307888E+05 -1.591039E+05 -1.579785E+05  1.745469E+05  6.617445E-13  0.000000E+00
       148   3 -6.460678E+05 -1.608754E+05 -1.613886E+05  1.759229E+05  1.861156E-13 -1.654361E-13
       148   4 -6.295681E+05 -1.654136E+05 -1.589964E+05  1.718072E+05  6.617445E-13  6.617445E-13
       148   5 -6.446897E+05 -1.616330E+05 -1.612645E+05  1.739397E+05 -1.985233E-12  0.000000E+00
       148   6 -6.620471E+05 -1.647444E+05 -1.653583E+05  1.746254E+05 -2.481542E-13  8.271806E-14
       148   7 -6.351562E+05 -1.645687E+05 -1.599450E+05  1.716182E+05  2.646978E-12 -6.617445E-13
       148   8 -6.525821E+05 -1.627189E+05 -1.630602E+05  1.730676E+05  6.617445E-13 -6.617445E-13
       148   9 -6.720201E+05 -1.671165E+05 -1.678273E+05  1.732124E+05  0.000000E+00 -8.271806E-14
       148  10 -6.179935E+05 -1.649422E+05 -1.565871E+05  1.715585E+05  1.654361E-13  0.000000E+00
       148  11 -6.307888E+05 -1.591039E+05 -1.579785E+05  1.745469E+05 -1.654361E-13  8.271806E-14
       148  12 -6.460678E+05 -1.608754E+05 -1.613886E+05  1.759229E+05 -6.203855E-14  0.000000E+00
       148  13 -6.295681E+05 -1.654136E+05 -1.589964E+05  1.718072E+05 -6.617445E-13  0.000000E+00
       148  14 -6.446897E+05 -1.616330E+05 -1.612645E+05  1.739397E+05  0.000000E+00 -3.308722E-13
       148  15 -6.620471E+05 -1.647444E+05 -1.653583E+05  1.746254E+05  4.135903E-14  4.135903E-14
       148  16 -6.351562E+05 -1.645687E+05 -1.599450E+05  1.716182E+05 -1.654361E-13  0.000000E+00
       148  17 -6.525821E+05 -1.627189E+05 -1.630602E+05  1.730676E+05 -3.308722E-13  1.654361E-13
       148  18 -6.720201E+05 -1.671165E+05 -1.678273E+05  1.732124E+05  2.067952E-14  2.067952E-14
       148  19 -6.179935E+05 -1.649422E+05 -1.565871E+05  1.715585E+05  2.646978E-12 -1.654361E-12
       148  20 -6.307888E+05 -1.591039E+05 -1.579785E+05  1.745469E+05  0.000000E+00  6.617445E-13
       148  21 -6.460678E+05 -1.608754E+05 -1.613886E+05  1.759229E+05  1.447566E-13  1.654361E-13
       148  22 -6.295681E+05 -1.654136E+05 -1.589964E+05  1.718072E+05 -6.617445E-13  6.617445E-13
       148  23 -6.446897E+05 -1.616330E+05 -1.612645E+05  1.739397E+05  6.617445E-13  0.000000E+00
       148  24 -6.620471E+05 -1.647444E+05 -1.653583E+05  1.746254E+05  2.481542E-13  8.271806E-14
       148  25 -6.351562E+05 -1.645687E+05 -1.599450E+05  1.716182E+05 -2.646978E-12  6.617445E-13
       148  26 -6.525821E+05 -1.627189E+05 -1.630602E+05  1.730676E+05  6.617445E-13  0.000000E+00
       148  27 -6.720201E+05 -1.671165E+05 -1.678273E+05  1.732124E+05  0.000000E+00  8.271806E-14
       149   1 -5.783647E+05 -1.935761E+05 -1.543882E+05  1.798477E+05 -6.286573E-12  2.316106E-12
       149   2 -5.931025E+05 -1.788405E+05 -1.543886E+05  1.766387E+05 -1.985233E-12 -3.308722E-13
       149   3 -6.093401E+05 -1.694547E+05 -1.557590E+05  1.726856E+05 -3.184645E-12 -3.929108E-13
       149   4 -5.849386E+05 -1.922146E+05 -1.554306E+05  1.799041E+05 -2.646978E-12  0.000000E+00
       149   5 -6.019507E+05 -1.787504E+05 -1.561402E+05  1.763915E+05 -5.293956E-12 -1.323489E-12
       149   6 -6.201444E+05 -1.696419E+05 -1.579573E+05  1.723882E+05  2.316106E-12  0.000000E+00
       149   7 -5.858046E+05 -1.898780E+05 -1.551365E+05  1.800268E+05  0.000000E+00 -2.646978E-12
       149   8 -6.044923E+05 -1.772084E+05 -1.563401E+05  1.764590E+05  0.000000E+00  1.323489E-12
       149   9 -6.240862E+05 -1.680577E+05 -1.584288E+05  1.726161E+05  2.977850E-12 -8.271806E-13
       149  10 -5.783647E+05 -1.935761E+05 -1.543882E+05  1.798477E+05 -3.308722E-13 -1.654361E-13
       149  11 -5.931025E+05 -1.788405E+05 -1.543886E+05  1.766387E+05  1.654361E-13  1.654361E-13
       149  12 -6.093401E+05 -1.694547E+05 -1.557590E+05  1.726856E+05  2.481542E-13  4.135903E-14
       149  13 -5.849386E+05 -1.922146E+05 -1.554306E+05  1.799041E+05 -1.323489E-12  0.000000E+00
       149  14 -6.019507E+05 -1.787504E+05 -1.561402E+05  1.763915E+05  1.654361E-12  0.000000E+00
       149  15 -6.201444E+05 -1.696419E+05 -1.579573E+05  1.723882E+05 -4.963084E-13 -4.963084E-13
       149  16 -5.858046E+05 -1.898780E+05 -1.551365E+05  1.800268E+05  3.308722E-13  3.308722E-13
       149  17 -6.044923E+05 -1.772084E+05 -1.563401E+05  1.764590E+05  1.654361E-13  1.654361E-13
       149  18 -6.240862E+05 -1.680577E+05 -1.584288E+05  1.726161E+05  1.654361E-13  1.240771E-13
       149  19 -5.783647E+05 -1.935761E+05 -1.543882E+05  1.798477E+05  3.639595E-12 -9.926167E-13
       149  20 -5.931025E+05 -1.788405E+05 -1.543886E+05  1.766387E+05 -6.617445E-13 -9.926167E-13
       149  21 -6.093401E+05 -1.694547E+05 -1.557590E+05  1.726856E+05  5.376674E-13  1.716400E-12
       149  22 -5.849386E+05 -1.922146E+05 -1.554306E+05  1.799041E+05  0.000000E+00  0.000000E+00
       149  23 -6.019507E+05 -1.787504E+05 -1.561402E+05  1.763915E+05  2.646978E-12  0.000000E+00
       149  24 -6.201444E+05 -1.696419E+05 -1.579573E+05  1.723882E+05  3.308722E-13  0.000000E+00
       149  25 -5.858046E+05 -1.898780E+05 -1.551365E+05  1.800268E+05  0.000000E+00  0.000000E+00
       149  26 -6.044923E+05 -1.772084E+05 -1.563401E+05  1.764590E+05  2.646978E-12 -1.323489E-12
       149  27 -6.240862E+05 -1.680577E+05 -1.584288E+05  1.726161E+05  9.926167E-13  8.271806E-13
       150   1 -1.150862E+05 -7.695863E+04 -3.840897E+04 -1.793878E+04 -1.106354E-12  1.548379E-12
       150   2 -1.168780E+05 -7.243708E+04 -3.786302E+04 -2.090537E+04 -8.401053E-13  1.231724E-12
       150   3 -1.183711E+05 -6.665420E+04 -3.700506E+04 -2.387093E+04 -8.704783E-13  1.199089E-12
       150   4 -1.209540E+05 -7.407485E+04 -3.900576E+04 -1.669382E+04 -8.065011E-13  1.302809E-12
       150   5 -1.232093E+05 -6.970537E+04 -3.858293E+04 -1.901585E+04 -6.203855E-14 -1.033976E-14
       150   6 -1.251952E+05 -6.421700E+04 -3.788245E+04 -2.133647E+04 -6.281403E-13  9.396255E-13
       150   7 -1.263084E+05 -7.108670E+04 -3.947901E+04 -1.564332E+04 -7.858216E-13  1.282130E-12
       150   8 -1.289709E+05 -6.683305E+04 -3.916079E+04 -1.740199E+04 -6.824240E-13  9.512577E-13
       150   9 -1.313914E+05 -6.158723E+04 -3.859572E+04 -1.915708E+04 -6.152156E-13  9.357481E-13
       150  10 -1.150862E+05 -7.695863E+04 -3.840897E+04 -1.793878E+04  0.000000E+00 -5.169879E-15
       150  11 -1.168780E+05 -7.243708E+04 -3.786302E+04 -2.090537E+04 -5.169879E-15  2.584939E-15
       150  12 -1.183711E+05 -6.665420E+04 -3.700506E+04 -2.387093E+04 -5.169879E-15  1.938705E-15
       150  13 -1.209540E+05 -7.407485E+04 -3.900576E+04 -1.669382E+04  0.000000E+00  0.000000E+00
       150  14 -1.232093E+05 -6.970537E+04 -3.858293E+04 -1.901585E+04 -1.033976E-14 -5.169879E-15
       150  15 -1.251952E+05 -6.421700E+04 -3.788245E+04 -2.133647E+04 -1.809458E-14 -1.292470E-15
       150  16 -1.263084E+05 -7.108670E+04 -3.947901E+04 -1.564332E+04  0.000000E+00  0.000000E+00
       150  17 -1.289709E+05 -6.683305E+04 -3.916079E+04 -1.740199E+04  2.584939E-15  2.584939E-15
       150  18 -1.313914E+05 -6.158723E+04 -3.859572E+04 -1.915708E+04 -2.584939E-15 -1.938705E-15
       150  19 -1.150862E+05 -7.695863E+04 -3.840897E+04 -1.793878E+04  1.106354E-12 -1.589738E-12
       150  20 -1.168780E+05 -7.243708E+04 -3.786302E+04 -2.090537E+04  8.401053E-13 -1.231724E-12
       150  21 -1.183711E+05 -6.665420E+04 -3.700506E+04 -2.387093E+04  7.877603E-13 -1.219768E-12
       150  22 -1.209540E+05 -7.407485E+04 -3.900576E+04 -1.669382E+04  8.065011E-13 -1.302809E-12
       150  23 -1.232093E+05 -6.970537E+04 -3.858293E+04 -1.901585E+04  2.067952E-14  1.033976E-14
       150  24 -1.251952E+05 -6.421700E+04 -3.788245E+04 -2.133647E+04  6.281403E-13 -9.809845E-13
       150  25 -1.263084E+05 -7.108670E+04 -3.947901E+04 -1.564332E+04  8.685396E-13 -1.282130E-12
       150  26 -1.289709E+05 -6.683305E+04 -3.916079E+04 -1.740199E+04  6.410650E-13 -9.512577E-13
       150  27 -1.313914E+05 -6.158723E+04 -3.859572E+04 -1.915708E+04  6.152156E-13 -9.564276E-13
       151   1 -1.225769E+05 -6.447353E+04 -3.741008E+04 -2.385602E+04 -7.392927E-13  1.139958E-12
       151   2 -1.214586E+05 -5.866942E+04 -3.602561E+04 -2.637381E+04 -5.247427E-13  8.814643E-13
       151   3 -1.203572E+05 -5.172422E+04 -3.441628E+04 -2.946250E+04 -3.528442E-13  7.042344E-13
       151   4 -1.280853E+05 -6.169377E+04 -3.795581E+04 -2.193278E+04 -4.963084E-13  9.098987E-13
       151   5 -1.287527E+05 -5.652894E+04 -3.705632E+04 -2.369420E+04  2.067952E-14 -1.033976E-14
       151   6 -1.295341E+05 -5.034039E+04 -3.597491E+04 -2.591077E+04 -3.257024E-13  5.118180E-13
       151   7 -1.325598E+05 -5.864779E+04 -3.824151E+04 -2.008362E+04 -4.963084E-13  8.478601E-13
       151   8 -1.347332E+05 -5.403833E+04 -3.775430E+04 -2.115275E+04 -3.308722E-13  5.997059E-13
       151   9 -1.370799E+05 -4.850266E+04 -3.711652E+04 -2.257892E+04 -2.843433E-13  4.691665E-13
       151  10 -1.225769E+05 -6.447353E+04 -3.741008E+04 -2.385602E+04  0.000000E+00  2.584939E-15
       151  11 -1.214586E+05 -5.866942E+04 -3.602561E+04 -2.637381E+04 -2.584939E-15  3.877409E-15
       151  12 -1.203572E+05 -5.172422E+04 -3.441628E+04 -2.946250E+04  5.169879E-15 -3.231174E-16
       151  13 -1.280853E+05 -6.169377E+04 -3.795581E+04 -2.193278E+04 -1.033976E-14 -5.169879E-15
       151  14 -1.287527E+05 -5.652894E+04 -3.705632E+04 -2.369420E+04 -1.550964E-14  5.169879E-15
       151  15 -1.295341E+05 -5.034039E+04 -3.597491E+04 -2.591077E+04  6.462349E-15 -6.462349E-15
       151  16 -1.325598E+05 -5.864779E+04 -3.824151E+04 -2.008362E+04  5.169879E-15 -2.584939E-15
       151  17 -1.347332E+05 -5.403833E+04 -3.775430E+04 -2.115275E+04  0.000000E+00  7.754818E-15
       151  18 -1.370799E+05 -4.850266E+04 -3.711652E+04 -2.257892E+04  6.462349E-15  3.554292E-15
       151  19 -1.225769E+05 -6.447353E+04 -3.741008E+04 -2.385602E+04  6.979336E-13 -1.119279E-12
       151  20 -1.214586E+05 -5.866942E+04 -3.602561E+04 -2.637381E+04  4.833837E-13 -8.401053E-13
       151  21 -1.203572E+05 -5.172422E+04 -3.441628E+04 -2.946250E+04  3.942033E-13 -7.145742E-13
       151  22 -1.280853E+05 -6.169377E+04 -3.795581E+04 -2.193278E+04  4.963084E-13 -9.098987E-13
       151  23 -1.287527E+05 -5.652894E+04 -3.705632E+04 -2.369420E+04 -2.067952E-14  1.033976E-14
       151  24 -1.295341E+05 -5.034039E+04 -3.597491E+04 -2.591077E+04  2.843433E-13 -5.324975E-13
       151  25 -1.325598E+05 -5.864779E+04 -3.824151E+04 -2.008362E+04  4.963084E-13 -8.685396E-13
       151  26 -1.347332E+05 -5.403833E+04 -3.775430E+04 -2.115275E+04  2.895132E-13 -5.997059E-13
       151  27 -1.370799E+05 -4.850266E+04 -3.711652E+04 -2.257892E+04  3.050229E-13 -4.588267E-13
       152   1 -1.356050E+05 -5.772387E+04 -3.866577E+04 -1.863910E+04 -4.652891E-13  7.728969E-13
       152   2 -1.386685E+05 -5.264841E+04 -3.826338E+04 -1.984112E+04 -2.740036E-13  5.337900E-13
       152   3 -1.414630E+05 -4.680913E+04 -3.765443E+04 -2.085655E+04 -2.087339E-13  3.694848E-13
       152   4 -1.416227E+05 -5.690300E+04 -3.970515E+04 -1.570915E+04 -3.929108E-13  6.514047E-13
       152   5 -1.451370E+05 -5.098925E+04 -3.922525E+04 -1.678652E+04 -1.033976E-14 -7.754818E-15
       152   6 -1.483822E+05 -4.455511E+04 -3.858745E+04 -1.763934E+04 -1.395867E-13  2.126113E-13
       152   7 -1.472010E+05 -5.596877E+04 -4.063395E+04 -1.296702E+04 -3.308722E-13  6.307252E-13
       152   8 -1.509848E+05 -4.903129E+04 -4.000322E+04 -1.404125E+04 -1.447566E-13  3.360421E-13
       152   9 -1.545010E+05 -4.172826E+04 -3.924585E+04 -1.486599E+04 -5.169879E-14  9.952017E-14
       152  10 -1.356050E+05 -5.772387E+04 -3.866577E+04 -1.863910E+04 -1.033976E-14  2.584939E-15
       152  11 -1.386685E+05 -5.264841E+04 -3.826338E+04 -1.984112E+04 -2.584939E-15 -6.462349E-16
       152  12 -1.414630E+05 -4.680913E+04 -3.765443E+04 -2.085655E+04  4.523644E-15  1.130911E-15
       152  13 -1.416227E+05 -5.690300E+04 -3.970515E+04 -1.570915E+04  0.000000E+00  0.000000E+00
       152  14 -1.451370E+05 -5.098925E+04 -3.922525E+04 -1.678652E+04  2.067952E-14  5.169879E-15
       152  15 -1.483822E+05 -4.455511E+04 -3.858745E+04 -1.763934E+04  6.462349E-15  1.292470E-15
       152  16 -1.472010E+05 -5.596877E+04 -4.063395E+04 -1.296702E+04 -5.169879E-15 -2.584939E-15
       152  17 -1.509848E+05 -4.903129E+04 -4.000322E+04 -1.404125E+04  7.754818E-15  6.462349E-16
       152  18 -1.545010E+05 -4.172826E+04 -3.924585E+04 -1.486599E+04 -1.938705E-15 -8.077936E-16
       152  19 -1.356050E+05 -5.772387E+04 -3.866577E+04 -1.863910E+04  4.652891E-13 -7.728969E-13
       152  20 -1.386685E+05 -5.264841E+04 -3.826338E+04 -1.984112E+04  2.740036E-13 -5.234502E-13
       152  21 -1.414630E+05 -4.680913E+04 -3.765443E+04 -2.085655E+04  2.087339E-13 -3.694848E-13
       152  22 -1.416227E+05 -5.690300E+04 -3.970515E+04 -1.570915E+04  3.929108E-13 -6.307252E-13
       152  23 -1.451370E+05 -5.098925E+04 -3.922525E+04 -1.678652E+04  1.033976E-14 -2.584939E-15
       152  24 -1.483822E+05 -4.455511E+04 -3.858745E+04 -1.763934E+04  1.085675E-13 -2.229510E-13
       152  25 -1.472010E+05 -5.596877E+04 -4.063395E+04 -1.296702E+04  3.722313E-13 -6.203855E-13
       152  26 -1.509848E+05 -4.903129E+04 -4.000322E+04 -1.404125E+04  1.861156E-13 -3.205325E-13
       152  27 -1.545010E+05 -4.172826E+04 -3.924585E+04 -1.486599E+04  6.720842E-14 -9.952017E-14
       153   1 -1.291802E+05 -7.088320E+04 -4.001267E+04 -1.430182E+04 -8.788794E-13  1.222676E-12
       153   2 -1.320780E+05 -6.604684E+04 -3.962496E+04 -1.587272E+04 -7.134433E-13  9.267008E-13
       153   3 -1.348873E+05 -6.084724E+04 -3.914691E+04 -1.744404E+04 -4.446096E-13  8.872805E-13
       153   4 -1.332979E+05 -7.115899E+04 -4.089137E+04 -1.154750E+04 -7.444626E-13  1.064995E-12
       153   5 -1.368272E+05 -6.585609E+04 -4.053667E+04 -1.312942E+04  8.271806E-14 -1.033976E-14
       153   6 -1.402824E+05 -6.032110E+04 -4.012071E+04 -1.462708E+04 -4.135903E-13  7.741894E-13
       153   7 -1.371326E+05 -7.160787E+04 -4.174809E+04 -8.987727E+03 -8.271806E-13  1.261450E-12
       153   8 -1.410449E+05 -6.571454E+04 -4.135189E+04 -1.062643E+04 -7.031035E-13  8.892192E-13
       153   9 -1.448922E+05 -5.967941E+04 -4.091433E+04 -1.212247E+04 -5.169879E-13  7.496324E-13
       153  10 -1.291802E+05 -7.088320E+04 -4.001267E+04 -1.430182E+04 -2.067952E-14  0.000000E+00
       153  11 -1.320780E+05 -6.604684E+04 -3.962496E+04 -1.587272E+04  1.550964E-14  9.047288E-15
       153  12 -1.348873E+05 -6.084724E+04 -3.914691E+04 -1.744404E+04  6.462349E-15  1.938705E-15
       153  13 -1.332979E+05 -7.115899E+04 -4.089137E+04 -1.154750E+04  2.067952E-14  1.033976E-14
       153  14 -1.368272E+05 -6.585609E+04 -4.053667E+04 -1.312942E+04  0.000000E+00 -1.033976E-14
       153  15 -1.402824E+05 -6.032110E+04 -4.012071E+04 -1.462708E+04 -1.033976E-14 -2.584939E-15
       153  16 -1.371326E+05 -7.160787E+04 -4.174809E+04 -8.987727E+03  1.033976E-14  0.000000E+00
       153  17 -1.410449E+05 -6.571454E+04 -4.135189E+04 -1.062643E+04 -5.169879E-15  5.169879E-15
       153  18 -1.448922E+05 -5.967941E+04 -4.091433E+04 -1.212247E+04  3.877409E-15  9.693523E-16
       153  19 -1.291802E+05 -7.088320E+04 -4.001267E+04 -1.430182E+04  7.961613E-13 -1.264035E-12
       153  20 -1.320780E+05 -6.604684E+04 -3.962496E+04 -1.587272E+04  6.307252E-13 -9.887393E-13
       153  21 -1.348873E+05 -6.084724E+04 -3.914691E+04 -1.744404E+04  5.273276E-13 -9.079600E-13
       153  22 -1.332979E+05 -7.115899E+04 -4.089137E+04 -1.154750E+04  7.444626E-13 -1.106354E-12
       153  23 -1.368272E+05 -6.585609E+04 -4.053667E+04 -1.312942E+04 -8.271806E-14  1.033976E-14
       153  24 -1.402824E+05 -6.032110E+04 -4.012071E+04 -1.462708E+04  4.135903E-13 -7.328303E-13
       153  25 -1.371326E+05 -7.160787E+04 -4.174809E+04 -8.987727E+03  7.444626E-13 -1.261450E-12
       153  26 -1.410449E+05 -6.571454E+04 -4.135189E+04 -1.062643E+04  5.376674E-13 -9.305782E-13
       153  27 -1.448922E+05 -5.967941E+04 -4.091433E+04 -1.212247E+04  5.583469E-13 -7.496324E-13
       154   1 -1.799092E+05 -4.690274E+04 -4.536238E+04  1.179573E+03 -3.812786E-14  6.106919E-14
       154   2 -1.757277E+05 -5.246275E+04 -4.563810E+04  1.437715E+03 -1.189072E-13  2.407225E-13
       154   3 -1.715031E+05 -5.799482E+04 -4.589959E+04  1.742502E+03 -2.171349E-13  4.788600E-13
       154   4 -1.757865E+05 -4.591015E+04 -4.433932E+04 -1.447631E+03 -2.584939E-14  5.557620E-14
       154   5 -1.716403E+05 -5.160872E+04 -4.464980E+04 -1.170468E+03 -2.067952E-14 -1.292470E-15
       154   6 -1.674546E+05 -5.727865E+04 -4.494665E+04 -8.493111E+02 -3.515518E-13  4.368548E-13
       154   7 -1.713189E+05 -4.483814E+04 -4.323140E+04 -4.265953E+03 -5.169879E-14  6.462349E-14
       154   8 -1.672172E+05 -5.070038E+04 -4.358352E+04 -3.965714E+03 -1.654361E-13  2.507391E-13
       154   9 -1.630799E+05 -5.653239E+04 -4.392245E+04 -3.624526E+03 -3.308722E-13  5.014782E-13
       154  10 -1.799092E+05 -4.690274E+04 -4.536238E+04  1.179573E+03  4.200527E-15  4.038968E-17
       154  11 -1.757277E+05 -5.246275E+04 -4.563810E+04  1.437715E+03 -3.877409E-15 -8.077936E-17
       154  12 -1.715031E+05 -5.799482E+04 -4.589959E+04  1.742502E+03 -2.908057E-15  4.038968E-17
       154  13 -1.757865E+05 -4.591015E+04 -4.433932E+04 -1.447631E+03  6.462349E-15  1.615587E-16
       154  14 -1.716403E+05 -5.160872E+04 -4.464980E+04 -1.170468E+03  0.000000E+00  0.000000E+00
       154  15 -1.674546E+05 -5.727865E+04 -4.494665E+04 -8.493111E+02 -6.462349E-15  0.000000E+00
       154  16 -1.713189E+05 -4.483814E+04 -4.323140E+04 -4.265953E+03 -2.584939E-15  0.000000E+00
       154  17 -1.672172E+05 -5.070038E+04 -4.358352E+04 -3.965714E+03  0.000000E+00  0.000000E+00
       154  18 -1.630799E+05 -5.653239E+04 -4.392245E+04 -3.624526E+03  5.169879E-15 -6.462349E-16
       154  19 -1.799092E+05 -4.690274E+04 -4.536238E+04  1.179573E+03  3.295798E-14 -6.098841E-14
       154  20 -1.757277E+05 -5.246275E+04 -4.563810E+04  1.437715E+03  1.602662E-13 -2.410456E-13
       154  21 -1.715031E+05 -5.799482E+04 -4.589959E+04  1.742502E+03  2.998530E-13 -4.795063E-13
       154  22 -1.757865E+05 -4.591015E+04 -4.433932E+04 -1.447631E+03  3.618915E-14 -5.557620E-14
       154  23 -1.716403E+05 -5.160872E+04 -4.464980E+04 -1.170468E+03  2.067952E-14  1.292470E-15
       154  24 -1.674546E+05 -5.727865E+04 -4.494665E+04 -8.493111E+02  2.688337E-13 -4.342698E-13
       154  25 -1.713189E+05 -4.483814E+04 -4.323140E+04 -4.265953E+03  4.135903E-14 -6.397725E-14
       154  26 -1.672172E+05 -5.070038E+04 -4.358352E+04 -3.965714E+03  1.447566E-13 -2.481542E-13
       154  27 -1.630799E+05 -5.653239E+04 -4.392245E+04 -3.624526E+03  3.308722E-13 -5.014782E-13
       155   1 -1.690003E+05 -6.107491E+04 -4.601504E+04  2.067266E+03 -3.980807E-13  5.984135E-13
       155   2 -1.648892E+05 -6.617537E+04 -4.621292E+04  2.665759E+03 -4.446096E-13  7.043960E-13
       155   3 -1.607315E+05 -7.113221E+04 -4.637274E+04  3.296056E+03 -4.646429E-13  9.837310E-13
       155   4 -1.651109E+05 -6.043202E+04 -4.510859E+04 -4.636743E+02 -2.895132E-13  5.402523E-13
       155   5 -1.611465E+05 -6.556464E+04 -4.534222E+04  2.760731E+02 -1.861156E-13 -3.877409E-15
       155   6 -1.571344E+05 -7.053556E+04 -4.553400E+04  1.042062E+03 -5.764415E-13  8.843724E-13
       155   7 -1.607649E+05 -5.972840E+04 -4.409866E+04 -3.136171E+03 -4.135903E-13  6.307252E-13
       155   8 -1.569691E+05 -6.491360E+04 -4.437655E+04 -2.241239E+03 -4.963084E-13  7.237830E-13
       155   9 -1.531247E+05 -6.991692E+04 -4.460832E+04 -1.326330E+03 -7.186132E-13  1.004895E-12
       155  10 -1.690003E+05 -6.107491E+04 -4.601504E+04  2.067266E+03 -5.169879E-15  3.231174E-16
       155  11 -1.648892E+05 -6.617537E+04 -4.621292E+04  2.665759E+03 -1.550964E-14  3.231174E-16
       155  12 -1.607315E+05 -7.113221E+04 -4.637274E+04  3.296056E+03  5.816114E-15  2.019484E-16
       155  13 -1.651109E+05 -6.043202E+04 -4.510859E+04 -4.636743E+02 -2.067952E-14  6.462349E-16
       155  14 -1.611465E+05 -6.556464E+04 -4.534222E+04  2.760731E+02  2.067952E-14  9.693523E-16
       155  15 -1.571344E+05 -7.053556E+04 -4.553400E+04  1.042062E+03  2.584939E-14  1.050132E-15
       155  16 -1.607649E+05 -5.972840E+04 -4.409866E+04 -3.136171E+03  5.169879E-15 -3.231174E-16
       155  17 -1.569691E+05 -6.491360E+04 -4.437655E+04 -2.241239E+03  1.033976E-14  4.846761E-16
       155  18 -1.531247E+05 -6.991692E+04 -4.460832E+04 -1.326330E+03  1.357093E-14 -6.058452E-16
       155  19 -1.690003E+05 -6.107491E+04 -4.601504E+04  2.067266E+03  3.980807E-13 -5.971210E-13
       155  20 -1.648892E+05 -6.617537E+04 -4.621292E+04  2.665759E+03  4.446096E-13 -7.031035E-13
       155  21 -1.607315E+05 -7.113221E+04 -4.637274E+04  3.296056E+03  6.300790E-13 -9.837310E-13
       155  22 -1.651109E+05 -6.043202E+04 -4.510859E+04 -4.636743E+02  2.895132E-13 -5.454222E-13
       155  23 -1.611465E+05 -6.556464E+04 -4.534222E+04  2.760731E+02 -1.447566E-13  3.877409E-15
       155  24 -1.571344E+05 -7.053556E+04 -4.553400E+04  1.042062E+03  3.282873E-13 -8.843724E-13
       155  25 -1.607649E+05 -5.972840E+04 -4.409866E+04 -3.136171E+03  3.308722E-13 -6.255553E-13
       155  26 -1.569691E+05 -6.491360E+04 -4.437655E+04 -2.241239E+03  6.617445E-13 -7.186132E-13
       155  27 -1.531247E+05 -6.991692E+04 -4.460832E+04 -1.326330E+03  5.531770E-13 -1.004895E-12
       156   1 -1.580910E+05 -5.940620E+04 -4.349944E+04 -4.742474E+03 -4.032505E-13  6.552821E-13
       156   2 -1.543514E+05 -6.481140E+04 -4.383256E+04 -3.768688E+03 -3.825710E-13  7.657883E-13
       156   3 -1.505030E+05 -6.982686E+04 -4.406598E+04 -2.743522E+03 -6.326639E-13  1.046577E-12
       156   4 -1.532709E+05 -5.949611E+04 -4.255341E+04 -7.529038E+03 -3.515518E-13  6.203855E-13
       156   5 -1.494222E+05 -6.521663E+04 -4.292776E+04 -6.330267E+03  4.135903E-14 -2.584939E-14
       156   6 -1.454622E+05 -7.051585E+04 -4.319562E+04 -5.092747E+03 -7.005186E-13  1.008126E-12
       156   7 -1.478417E+05 -5.948793E+04 -4.146592E+04 -1.054460E+04 -5.376674E-13  7.548023E-13
       156   8 -1.439134E+05 -6.553941E+04 -4.189056E+04 -9.100779E+03 -6.410650E-13  8.581999E-13
       156   9 -1.398694E+05 -7.113544E+04 -4.220097E+04 -7.632827E+03 -8.220107E-13  1.151591E-12
       156  10 -1.580910E+05 -5.940620E+04 -4.349944E+04 -4.742474E+03  0.000000E+00  0.000000E+00
       156  11 -1.543514E+05 -6.481140E+04 -4.383256E+04 -3.768688E+03  3.101927E-14  6.462349E-16
       156  12 -1.505030E+05 -6.982686E+04 -4.406598E+04 -2.743522E+03  6.462349E-16  0.000000E+00
       156  13 -1.532709E+05 -5.949611E+04 -4.255341E+04 -7.529038E+03  0.000000E+00 -2.584939E-15
       156  14 -1.494222E+05 -6.521663E+04 -4.292776E+04 -6.330267E+03  0.000000E+00  0.000000E+00
       156  15 -1.454622E+05 -7.051585E+04 -4.319562E+04 -5.092747E+03 -1.033976E-14  0.000000E+00
       156  16 -1.478417E+05 -5.948793E+04 -4.146592E+04 -1.054460E+04 -1.033976E-14 -3.877409E-15
       156  17 -1.439134E+05 -6.553941E+04 -4.189056E+04 -9.100779E+03  2.584939E-15  2.584939E-15
       156  18 -1.398694E+05 -7.113544E+04 -4.220097E+04 -7.632827E+03 -1.033976E-14  4.685203E-15
       156  19 -1.580910E+05 -5.940620E+04 -4.349944E+04 -4.742474E+03  3.618915E-13 -6.449424E-13
       156  20 -1.543514E+05 -6.481140E+04 -4.383256E+04 -3.768688E+03  4.652891E-13 -7.657883E-13
       156  21 -1.505030E+05 -6.982686E+04 -4.406598E+04 -2.743522E+03  4.672278E-13 -1.046577E-12
       156  22 -1.532709E+05 -5.949611E+04 -4.255341E+04 -7.529038E+03  3.101927E-13 -5.997059E-13
       156  23 -1.494222E+05 -6.521663E+04 -4.292776E+04 -6.330267E+03 -4.135903E-14 -5.169879E-15
       156  24 -1.454622E+05 -7.051585E+04 -4.319562E+04 -5.092747E+03  7.005186E-13 -1.008126E-12
       156  25 -1.478417E+05 -5.948793E+04 -4.146592E+04 -1.054460E+04  4.549493E-13 -7.341228E-13
       156  26 -1.439134E+05 -6.553941E+04 -4.189056E+04 -9.100779E+03  6.410650E-13 -8.168409E-13
       156  27 -1.398694E+05 -7.113544E+04 -4.220097E+04 -7.632827E+03  7.392927E-13 -1.151591E-12
       157   1 -1.685693E+05 -4.424630E+04 -4.256312E+04 -6.023682E+03 -3.877409E-14  6.720842E-14
       157   2 -1.645440E+05 -5.032388E+04 -4.297357E+04 -5.667777E+03 -1.033976E-13  2.649563E-13
       157   3 -1.604258E+05 -5.614302E+04 -4.331377E+04 -5.245641E+03 -2.998530E-13  5.182804E-13
       157   4 -1.634881E+05 -4.311151E+04 -4.131993E+04 -9.279668E+03 -4.394397E-14  6.203855E-14
       157   5 -1.596265E+05 -4.968837E+04 -4.186298E+04 -8.706375E+03 -1.033976E-14  0.000000E+00
       157   6 -1.556666E+05 -5.599339E+04 -4.233200E+04 -8.063211E+03 -2.688337E-13  4.807987E-13
       157   7 -1.579010E+05 -4.185778E+04 -3.995176E+04 -1.287055E+04 -4.135903E-14  7.884065E-14
       157   8 -1.542034E+05 -4.895994E+04 -4.063267E+04 -1.207200E+04 -1.861156E-13  2.998530E-13
       157   9 -1.504015E+05 -5.577679E+04 -4.123566E+04 -1.119941E+04 -2.895132E-13  5.893662E-13
       157  10 -1.685693E+05 -4.424630E+04 -4.256312E+04 -6.023682E+03  0.000000E+00 -8.077936E-17
       157  11 -1.645440E+05 -5.032388E+04 -4.297357E+04 -5.667777E+03 -7.108583E-15  0.000000E+00
       157  12 -1.604258E+05 -5.614302E+04 -4.331377E+04 -5.245641E+03 -9.370405E-15 -6.462349E-16
       157  13 -1.634881E+05 -4.311151E+04 -4.131993E+04 -9.279668E+03 -3.877409E-15  0.000000E+00
       157  14 -1.596265E+05 -4.968837E+04 -4.186298E+04 -8.706375E+03 -7.754818E-15  3.231174E-15
       157  15 -1.556666E+05 -5.599339E+04 -4.233200E+04 -8.063211E+03  1.292470E-15 -6.462349E-16
       157  16 -1.579010E+05 -4.185778E+04 -3.995176E+04 -1.287055E+04  2.584939E-15  0.000000E+00
       157  17 -1.542034E+05 -4.895994E+04 -4.063267E+04 -1.207200E+04  0.000000E+00  0.000000E+00
       157  18 -1.504015E+05 -5.577679E+04 -4.123566E+04 -1.119941E+04  0.000000E+00 -6.462349E-16
       157  19 -1.685693E+05 -4.424630E+04 -4.256312E+04 -6.023682E+03  3.877409E-14 -6.720842E-14
       157  20 -1.645440E+05 -5.032388E+04 -4.297357E+04 -5.667777E+03  1.654361E-13 -2.597864E-13
       157  21 -1.604258E+05 -5.614302E+04 -4.331377E+04 -5.245641E+03  2.584939E-13 -5.182804E-13
       157  22 -1.634881E+05 -4.311151E+04 -4.131993E+04 -9.279668E+03  3.877409E-14 -6.333102E-14
       157  23 -1.596265E+05 -4.968837E+04 -4.186298E+04 -8.706375E+03 -1.033976E-14  5.169879E-15
       157  24 -1.556666E+05 -5.599339E+04 -4.233200E+04 -8.063211E+03  1.861156E-13 -4.807987E-13
       157  25 -1.579010E+05 -4.185778E+04 -3.995176E+04 -1.287055E+04  5.169879E-14 -7.754818E-14
       157  26 -1.542034E+05 -4.895994E+04 -4.063267E+04 -1.207200E+04  1.861156E-13 -3.050229E-13
       157  27 -1.504015E+05 -5.577679E+04 -4.123566E+04 -1.119941E+04  2.895132E-13 -5.893662E-13
       158   1 -1.077095E+05 -1.041527E+05 -4.237243E+04  2.301546E+03 -2.936491E-12  2.450523E-12
       158   2 -1.049710E+05 -1.052937E+05 -4.205294E+04  1.942982E+03 -3.008869E-12  2.481542E-12
       158   3 -1.020469E+05 -1.057410E+05 -4.155759E+04  2.111547E+03 -3.938155E-12  2.688983E-12
       158   4 -9.751068E+04 -9.898930E+04 -3.930000E+04 -4.905573E+03 -2.233388E-12  2.254067E-12
       158   5 -9.431880E+04 -9.668398E+04 -3.820056E+04 -8.517962E+03 -4.135903E-14 -8.271806E-14
       158   6 -9.054595E+04 -9.209787E+04 -3.652876E+04 -1.199901E+04 -2.484127E-12  1.938705E-12
       158   7 -9.999020E+04 -9.848577E+04 -3.969519E+04 -8.761878E+03 -2.233388E-12  2.357465E-12
       158   8 -9.772758E+04 -9.295432E+04 -3.813638E+04 -1.554950E+04 -1.778438E-12  2.067952E-12
       158   9 -9.449996E+04 -8.298105E+04 -3.549620E+04 -2.274193E+04 -1.540624E-12  1.974894E-12
       158  10 -1.077095E+05 -1.041527E+05 -4.237243E+04  2.301546E+03 -5.169879E-15  1.033976E-14
       158  11 -1.049710E+05 -1.052937E+05 -4.205294E+04  1.942982E+03  1.550964E-14 -1.550964E-14
       158  12 -1.020469E+05 -1.057410E+05 -4.155759E+04  2.111547E+03 -3.877409E-15 -7.754818E-15
       158  13 -9.751068E+04 -9.898930E+04 -3.930000E+04 -4.905573E+03 -1.033976E-14 -2.067952E-14
       158  14 -9.431880E+04 -9.668398E+04 -3.820056E+04 -8.517962E+03 -5.169879E-15  1.033976E-14
       158  15 -9.054595E+04 -9.209787E+04 -3.652876E+04 -1.199901E+04  2.584939E-15  1.292470E-14
       158  16 -9.999020E+04 -9.848577E+04 -3.969519E+04 -8.761878E+03  0.000000E+00  0.000000E+00
       158  17 -9.772758E+04 -9.295432E+04 -3.813638E+04 -1.554950E+04  7.754818E-15  5.169879E-15
       158  18 -9.449996E+04 -8.298105E+04 -3.549620E+04 -2.274193E+04  1.938705E-15  0.000000E+00
       158  19 -1.077095E+05 -1.041527E+05 -4.237243E+04  2.301546E+03  2.895132E-12 -2.533241E-12
       158  20 -1.049710E+05 -1.052937E+05 -4.205294E+04  1.942982E+03  2.988190E-12 -2.481542E-12
       158  21 -1.020469E+05 -1.057410E+05 -4.155759E+04  2.111547E+03  3.938155E-12 -2.606265E-12
       158  22 -9.751068E+04 -9.898930E+04 -3.930000E+04 -4.905573E+03  2.192029E-12 -2.254067E-12
       158  23 -9.431880E+04 -9.668398E+04 -3.820056E+04 -8.517962E+03  4.135903E-14  1.654361E-13
       158  24 -9.054595E+04 -9.209787E+04 -3.652876E+04 -1.199901E+04  2.463447E-12 -2.104141E-12
       158  25 -9.999020E+04 -9.848577E+04 -3.969519E+04 -8.761878E+03  2.316106E-12 -2.522901E-12
       158  26 -9.772758E+04 -9.295432E+04 -3.813638E+04 -1.554950E+04  1.778438E-12 -1.985233E-12
       158  27 -9.449996E+04 -8.298105E+04 -3.549620E+04 -2.274193E+04  1.602662E-12 -1.974894E-12
       159   1 -9.539409E+04 -1.041391E+05 -3.990663E+04  2.777937E+03 -3.985977E-12  2.652148E-12
       159   2 -4.963979E+04 -8.435412E+04 -2.679878E+04 -2.790438E+04 -2.813707E-12  2.150670E-12
       159   3 -1.927040E+03 -5.675392E+04 -1.173619E+04 -6.268568E+04 -2.004621E-12  1.863095E-12
       159   4 -1.028014E+05 -9.603248E+04 -3.976678E+04 -1.019897E+04 -2.553920E-12  2.129990E-12
       159   5 -7.811466E+04 -8.565553E+04 -3.275404E+04 -2.785129E+04  2.067952E-14 -1.033976E-14
       159   6 -4.921320E+04 -5.860362E+04 -2.156336E+04 -5.302584E+04 -1.373895E-12  1.341584E-12
       159   7 -8.831918E+04 -8.270363E+04 -3.420456E+04 -2.709588E+04 -1.737079E-12  1.943874E-12
       159   8 -9.577332E+04 -8.429325E+04 -3.601331E+04 -2.684148E+04 -1.747419E-12  1.799118E-12
       159   9 -9.544537E+04 -5.546401E+04 -3.018188E+04 -3.944486E+04 -1.114109E-12  1.028806E-12
       159  10 -9.539409E+04 -1.041391E+05 -3.990663E+04  2.777937E+03 -2.584939E-15  5.169879E-15
       159  11 -4.963979E+04 -8.435412E+04 -2.679878E+04 -2.790438E+04 -1.292470E-15  1.550964E-14
       159  12 -1.927040E+03 -5.675392E+04 -1.173619E+04 -6.268568E+04  0.000000E+00  1.292470E-15
       159  13 -1.028014E+05 -9.603248E+04 -3.976678E+04 -1.019897E+04  0.000000E+00  2.067952E-14
       159  14 -7.811466E+04 -8.565553E+04 -3.275404E+04 -2.785129E+04  0.000000E+00  0.000000E+00
       159  15 -4.921320E+04 -5.860362E+04 -2.156336E+04 -5.302584E+04  1.292470E-15  9.047288E-15
       159  16 -8.831918E+04 -8.270363E+04 -3.420456E+04 -2.709588E+04  0.000000E+00  0.000000E+00
       159  17 -9.577332E+04 -8.429325E+04 -3.601331E+04 -2.684148E+04  3.877409E-15 -5.169879E-15
       159  18 -9.544537E+04 -5.546401E+04 -3.018188E+04 -3.944486E+04  9.693523E-16  1.292470E-15
       159  19 -9.539409E+04 -1.041391E+05 -3.990663E+04  2.777937E+03  3.975637E-12 -2.610789E-12
       159  20 -4.963979E+04 -8.435412E+04 -2.679878E+04 -2.790438E+04  2.813707E-12 -2.129990E-12
       159  21 -1.927040E+03 -5.675392E+04 -1.173619E+04 -6.268568E+04  2.002036E-12 -1.852755E-12
       159  22 -1.028014E+05 -9.603248E+04 -3.976678E+04 -1.019897E+04  2.533241E-12 -2.088631E-12
       159  23 -7.811466E+04 -8.565553E+04 -3.275404E+04 -2.785129E+04  0.000000E+00 -3.101927E-14
       159  24 -4.921320E+04 -5.860362E+04 -2.156336E+04 -5.302584E+04  1.384235E-12 -1.362263E-12
       159  25 -8.831918E+04 -8.270363E+04 -3.420456E+04 -2.709588E+04  1.737079E-12 -1.985233E-12
       159  26 -9.577332E+04 -8.429325E+04 -3.601331E+04 -2.684148E+04  1.747419E-12 -1.757759E-12
       159  27 -9.544537E+04 -5.546401E+04 -3.018188E+04 -3.944486E+04  1.083090E-12 -1.049485E-12
       160   1 -8.295335E+04 -7.742198E+04 -3.207506E+04 -3.017858E+04 -1.525114E-12  1.905100E-12
       160   2 -9.776221E+04 -6.844640E+04 -3.324172E+04 -3.313860E+04 -9.590125E-13  1.264035E-12
       160   3 -1.128087E+05 -6.053304E+04 -3.466835E+04 -3.482876E+04 -7.606184E-13  1.040438E-12
       160   4 -1.005514E+05 -7.216279E+04 -3.454284E+04 -2.806772E+04 -1.054655E-12  1.364848E-12
       160   5 -1.091546E+05 -6.397365E+04 -3.462565E+04 -3.103099E+04  1.033976E-14  5.169879E-15
       160   6 -1.178655E+05 -5.737786E+04 -3.504867E+04 -3.232648E+04 -5.299126E-13  7.884065E-13
       160   7 -1.168757E+05 -6.653823E+04 -3.668278E+04 -2.645143E+04 -7.444626E-13  1.220091E-12
       160   8 -1.176936E+05 -5.882855E+04 -3.530443E+04 -2.969088E+04 -3.929108E-13  8.581999E-13
       160   9 -1.182892E+05 -5.331215E+04 -3.432027E+04 -3.081782E+04 -4.937234E-13  8.065011E-13
       160  10 -8.295335E+04 -7.742198E+04 -3.207506E+04 -3.017858E+04  0.000000E+00 -5.169879E-15
       160  11 -9.776221E+04 -6.844640E+04 -3.324172E+04 -3.313860E+04 -5.169879E-15  0.000000E+00
       160  12 -1.128087E+05 -6.053304E+04 -3.466835E+04 -3.482876E+04 -4.523644E-15 -2.584939E-15
       160  13 -1.005514E+05 -7.216279E+04 -3.454284E+04 -2.806772E+04  0.000000E+00  0.000000E+00
       160  14 -1.091546E+05 -6.397365E+04 -3.462565E+04 -3.103099E+04 -5.169879E-15  5.169879E-15
       160  15 -1.178655E+05 -5.737786E+04 -3.504867E+04 -3.232648E+04  5.169879E-15  0.000000E+00
       160  16 -1.168757E+05 -6.653823E+04 -3.668278E+04 -2.645143E+04  0.000000E+00  0.000000E+00
       160  17 -1.176936E+05 -5.882855E+04 -3.530443E+04 -2.969088E+04  0.000000E+00  0.000000E+00
       160  18 -1.182892E+05 -5.331215E+04 -3.432027E+04 -3.081782E+04  1.292470E-15 -4.523644E-15
       160  19 -8.295335E+04 -7.742198E+04 -3.207506E+04 -3.017858E+04  1.545794E-12 -1.905100E-12
       160  20 -9.776221E+04 -6.844640E+04 -3.324172E+04 -3.313860E+04  9.590125E-13 -1.264035E-12
       160  21 -1.128087E+05 -6.053304E+04 -3.466835E+04 -3.482876E+04  7.399389E-13 -1.019759E-12
       160  22 -1.005514E+05 -7.216279E+04 -3.454284E+04 -2.806772E+04  1.013296E-12 -1.364848E-12
       160  23 -1.091546E+05 -6.397365E+04 -3.462565E+04 -3.103099E+04 -1.033976E-14  1.550964E-14
       160  24 -1.178655E+05 -5.737786E+04 -3.504867E+04 -3.232648E+04  5.299126E-13 -7.884065E-13
       160  25 -1.168757E+05 -6.653823E+04 -3.668278E+04 -2.645143E+04  7.444626E-13 -1.220091E-12
       160  26 -1.176936E+05 -5.882855E+04 -3.530443E+04 -2.969088E+04  4.549493E-13 -8.375204E-13
       160  27 -1.182892E+05 -5.331215E+04 -3.432027E+04 -3.081782E+04  4.523644E-13 -7.858216E-13
       161   1 -1.036996E+05 -9.127514E+04 -3.899495E+04 -1.278570E+04 -1.866326E-12  2.083461E-12
       161   2 -1.021963E+05 -8.927480E+04 -3.829422E+04 -1.609948E+04 -1.566473E-12  1.982649E-12
       161   3 -1.008074E+05 -8.730327E+04 -3.762214E+04 -1.976682E+04 -1.737079E-12  2.014960E-12
       161   4 -1.061263E+05 -8.516306E+04 -3.825788E+04 -1.593004E+04 -1.488925E-12  1.799118E-12
       161   5 -1.056837E+05 -8.165856E+04 -3.746846E+04 -1.932496E+04 -7.237830E-14 -1.344168E-13
       161   6 -1.053499E+05 -7.803145E+04 -3.667627E+04 -2.316697E+04 -1.199412E-12  1.659531E-12
       161   7 -1.113204E+05 -8.056012E+04 -3.837611E+04 -1.765690E+04 -1.282130E-12  1.819797E-12
       161   8 -1.122908E+05 -7.539487E+04 -3.753714E+04 -2.110111E+04 -9.512577E-13  1.364848E-12
       161   9 -1.133638E+05 -6.991233E+04 -3.665523E+04 -2.511227E+04 -9.667673E-13  1.364848E-12
       161  10 -1.036996E+05 -9.127514E+04 -3.899495E+04 -1.278570E+04  0.000000E+00 -5.169879E-15
       161  11 -1.021963E+05 -8.927480E+04 -3.829422E+04 -1.609948E+04 -5.169879E-15  7.754818E-15
       161  12 -1.008074E+05 -8.730327E+04 -3.762214E+04 -1.976682E+04 -7.754818E-15  3.231174E-15
       161  13 -1.061263E+05 -8.516306E+04 -3.825788E+04 -1.593004E+04 -1.033976E-14 -1.033976E-14
       161  14 -1.056837E+05 -8.165856E+04 -3.746846E+04 -1.932496E+04 -1.033976E-14  1.033976E-14
       161  15 -1.053499E+05 -7.803145E+04 -3.667627E+04 -2.316697E+04  3.877409E-15  2.326445E-14
       161  16 -1.113204E+05 -8.056012E+04 -3.837611E+04 -1.765690E+04  0.000000E+00  1.033976E-14
       161  17 -1.122908E+05 -7.539487E+04 -3.753714E+04 -2.110111E+04 -5.169879E-15  7.754818E-15
       161  18 -1.133638E+05 -6.991233E+04 -3.665523E+04 -2.511227E+04  9.693523E-15 -7.108583E-15
       161  19 -1.036996E+05 -9.127514E+04 -3.899495E+04 -1.278570E+04  1.949044E-12 -2.124820E-12
       161  20 -1.021963E+05 -8.927480E+04 -3.829422E+04 -1.609948E+04  1.607832E-12 -1.899930E-12
       161  21 -1.008074E+05 -8.730327E+04 -3.762214E+04 -1.976682E+04  1.737079E-12 -2.056319E-12
       161  22 -1.061263E+05 -8.516306E+04 -3.825788E+04 -1.593004E+04  1.406207E-12 -1.757759E-12
       161  23 -1.056837E+05 -8.165856E+04 -3.746846E+04 -1.932496E+04  7.237830E-14  5.169879E-14
       161  24 -1.053499E+05 -7.803145E+04 -3.667627E+04 -2.316697E+04  1.240771E-12 -1.576813E-12
       161  25 -1.113204E+05 -8.056012E+04 -3.837611E+04 -1.765690E+04  1.323489E-12 -1.819797E-12
       161  26 -1.122908E+05 -7.539487E+04 -3.753714E+04 -2.110111E+04  9.512577E-13 -1.406207E-12
       161  27 -1.133638E+05 -6.991233E+04 -3.665523E+04 -2.511227E+04  8.840493E-13 -1.323489E-12
       162   1 -2.276626E+05 -6.030516E+04 -5.759355E+04  3.763500E+04 -4.911385E-14  1.117986E-13
       162   2 -2.184912E+05 -6.958592E+04 -5.761541E+04  3.712466E+04 -1.292470E-13  3.851560E-13
       162   3 -2.093044E+05 -7.875132E+04 -5.761114E+04  3.660544E+04 -2.481542E-13  7.134433E-13
       162   4 -2.230029E+05 -5.883620E+04 -5.636782E+04  3.330114E+04 -5.686867E-14  8.788794E-14
       162   5 -2.144038E+05 -6.722181E+04 -5.632512E+04  3.282571E+04 -4.135903E-14 -3.101927E-14
       162   6 -2.058143E+05 -7.550840E+04 -5.626454E+04  3.230480E+04 -2.067952E-13  5.997059E-13
       162   7 -2.182991E+05 -5.735007E+04 -5.512983E+04  2.908875E+04 -1.033976E-14  8.271806E-14
       162   8 -2.103737E+05 -6.484621E+04 -5.504399E+04  2.864319E+04 -8.271806E-14  3.101927E-13
       162   9 -2.024834E+05 -7.226188E+04 -5.494905E+04  2.811029E+04 -3.308722E-13  6.203855E-13
       162  10 -2.276626E+05 -6.030516E+04 -5.759355E+04  3.763500E+04  1.292470E-15  3.231174E-16
       162  11 -2.184912E+05 -6.958592E+04 -5.761541E+04  3.712466E+04 -5.169879E-15 -9.047288E-15
       162  12 -2.093044E+05 -7.875132E+04 -5.761114E+04  3.660544E+04 -1.421717E-14 -1.130911E-14
       162  13 -2.230029E+05 -5.883620E+04 -5.636782E+04  3.330114E+04  5.169879E-15 -2.584939E-15
       162  14 -2.144038E+05 -6.722181E+04 -5.632512E+04  3.282571E+04 -2.067952E-14  7.754818E-15
       162  15 -2.058143E+05 -7.550840E+04 -5.626454E+04  3.230480E+04  1.033976E-14  0.000000E+00
       162  16 -2.182991E+05 -5.735007E+04 -5.512983E+04  2.908875E+04  0.000000E+00  0.000000E+00
       162  17 -2.103737E+05 -6.484621E+04 -5.504399E+04  2.864319E+04  0.000000E+00  0.000000E+00
       162  18 -2.024834E+05 -7.226188E+04 -5.494905E+04  2.811029E+04 -1.033976E-14  5.169879E-15
       162  19 -2.276626E+05 -6.030516E+04 -5.759355E+04  3.763500E+04  2.843433E-14 -9.111911E-14
       162  20 -2.184912E+05 -6.958592E+04 -5.761541E+04  3.712466E+04  2.119650E-13 -4.265150E-13
       162  21 -2.093044E+05 -7.875132E+04 -5.761114E+04  3.660544E+04  2.481542E-13 -7.961613E-13
       162  22 -2.230029E+05 -5.883620E+04 -5.636782E+04  3.330114E+04  3.618915E-14 -9.305782E-14
       162  23 -2.144038E+05 -6.722181E+04 -5.632512E+04  3.282571E+04  4.135903E-14 -1.033976E-14
       162  24 -2.058143E+05 -7.550840E+04 -5.626454E+04  3.230480E+04  4.135903E-14 -5.997059E-13
       162  25 -2.182991E+05 -5.735007E+04 -5.512983E+04  2.908875E+04  3.101927E-14 -8.271806E-14
       162  26 -2.103737E+05 -6.484621E+04 -5.504399E+04  2.864319E+04  8.271806E-14 -3.515518E-13
       162  27 -2.024834E+05 -7.226188E+04 -5.494905E+04  2.811029E+04  1.654361E-13 -6.203855E-13
       163   1 -2.037588E+05 -8.371568E+04 -5.749489E+04  3.572465E+04 -3.618915E-13  7.754818E-13
       163   2 -1.944237E+05 -9.128187E+04 -5.714112E+04  3.390110E+04  1.137373E-13  1.039146E-12
       163   3 -1.850027E+05 -9.847535E+04 -5.669560E+04  3.206204E+04 -1.223969E-12  1.531577E-12
       163   4 -2.008301E+05 -8.009735E+04 -5.618549E+04  3.169159E+04 -1.654361E-13  9.305782E-13
       163   5 -1.922212E+05 -8.729405E+04 -5.590305E+04  3.019061E+04 -6.203855E-13  1.654361E-13
       163   6 -1.835079E+05 -9.400608E+04 -5.550280E+04  2.864109E+04 -3.567216E-13  1.240771E-12
       163   7 -1.976985E+05 -7.647623E+04 -5.483494E+04  2.756923E+04 -3.308722E-13  8.685396E-13
       163   8 -1.899343E+05 -8.331606E+04 -5.465007E+04  2.643690E+04 -3.722313E-13  9.305782E-13
       163   9 -1.820450E+05 -8.954341E+04 -5.431769E+04  2.521848E+04 -1.085675E-12  1.256281E-12
       163  10 -2.037588E+05 -8.371568E+04 -5.749489E+04  3.572465E+04  0.000000E+00  0.000000E+00
       163  11 -1.944237E+05 -9.128187E+04 -5.714112E+04  3.390110E+04  0.000000E+00  1.550964E-14
       163  12 -1.850027E+05 -9.847535E+04 -5.669560E+04  3.206204E+04  0.000000E+00  6.462349E-16
       163  13 -2.008301E+05 -8.009735E+04 -5.618549E+04  3.169159E+04  4.135903E-14 -2.067952E-14
       163  14 -1.922212E+05 -8.729405E+04 -5.590305E+04  3.019061E+04 -8.271806E-14  1.033976E-14
       163  15 -1.835079E+05 -9.400608E+04 -5.550280E+04  2.864109E+04  1.033976E-14 -1.809458E-14
       163  16 -1.976985E+05 -7.647623E+04 -5.483494E+04  2.756923E+04  0.000000E+00 -5.169879E-15
       163  17 -1.899343E+05 -8.331606E+04 -5.465007E+04  2.643690E+04  8.271806E-14  2.584939E-15
       163  18 -1.820450E+05 -8.954341E+04 -5.431769E+04  2.521848E+04 -2.584939E-14 -3.877409E-15
       163  19 -2.037588E+05 -8.371568E+04 -5.749489E+04  3.572465E+04  3.618915E-13 -8.581999E-13
       163  20 -1.944237E+05 -9.128187E+04 -5.714112E+04  3.390110E+04  3.825710E-13 -1.039146E-12
       163  21 -1.850027E+05 -9.847535E+04 -5.669560E+04  3.206204E+04  5.622243E-13 -1.531577E-12
       163  22 -2.008301E+05 -8.009735E+04 -5.618549E+04  3.169159E+04  3.308722E-13 -6.824240E-13
       163  23 -1.922212E+05 -8.729405E+04 -5.590305E+04  3.019061E+04  1.240771E-13  0.000000E+00
       163  24 -1.835079E+05 -9.400608E+04 -5.550280E+04  2.864109E+04  3.567216E-13 -1.075335E-12
       163  25 -1.976985E+05 -7.647623E+04 -5.483494E+04  2.756923E+04  1.654361E-13 -7.858216E-13
       163  26 -1.899343E+05 -8.331606E+04 -5.465007E+04  2.643690E+04  3.722313E-13 -8.478601E-13
       163  27 -1.820450E+05 -8.954341E+04 -5.431769E+04  2.521848E+04  5.893662E-13 -1.256281E-12
       164   1 -1.959640E+05 -7.477474E+04 -5.414776E+04  2.542002E+04 -6.203855E-14  7.935764E-13
       164   2 -1.885645E+05 -8.115556E+04 -5.394402E+04  2.441641E+04  5.169879E-15  8.788794E-13
       164   3 -1.811311E+05 -8.741312E+04 -5.370885E+04  2.342920E+04 -3.929108E-13  1.185518E-12
       164   4 -1.930449E+05 -7.221793E+04 -5.305256E+04  2.196572E+04 -3.722313E-13  6.203855E-13
       164   5 -1.861901E+05 -7.831489E+04 -5.290099E+04  2.123007E+04 -3.101927E-13  5.169879E-15
       164   6 -1.792888E+05 -8.420455E+04 -5.269866E+04  2.048585E+04 -3.257024E-13  1.079212E-12
       164   7 -1.897117E+05 -6.960128E+04 -5.186260E+04  1.843154E+04 -2.481542E-13  7.031035E-13
       164   8 -1.834990E+05 -7.543120E+04 -5.178604E+04  1.800616E+04 -6.203855E-13  7.858216E-13
       164   9 -1.772274E+05 -8.095665E+04 -5.163681E+04  1.754423E+04 -4.239301E-13  1.142543E-12
       164  10 -1.959640E+05 -7.477474E+04 -5.414776E+04  2.542002E+04  1.033976E-14 -2.584939E-15
       164  11 -1.885645E+05 -8.115556E+04 -5.394402E+04  2.441641E+04 -3.618915E-14  1.809458E-14
       164  12 -1.811311E+05 -8.741312E+04 -5.370885E+04  2.342920E+04  2.067952E-14 -2.584939E-15
       164  13 -1.930449E+05 -7.221793E+04 -5.305256E+04  2.196572E+04  0.000000E+00  1.033976E-14
       164  14 -1.861901E+05 -7.831489E+04 -5.290099E+04  2.123007E+04 -6.203855E-14 -5.169879E-15
       164  15 -1.792888E+05 -8.420455E+04 -5.269866E+04  2.048585E+04 -1.033976E-14 -1.292470E-15
       164  16 -1.897117E+05 -6.960128E+04 -5.186260E+04  1.843154E+04  2.067952E-14 -1.033976E-14
       164  17 -1.834990E+05 -7.543120E+04 -5.178604E+04  1.800616E+04 -8.271806E-14  2.067952E-14
       164  18 -1.772274E+05 -8.095665E+04 -5.163681E+04  1.754423E+04 -5.169879E-15 -7.108583E-15
       164  19 -1.959640E+05 -7.477474E+04 -5.414776E+04  2.542002E+04  3.929108E-13 -7.522174E-13
       164  20 -1.885645E+05 -8.115556E+04 -5.394402E+04  2.441641E+04  3.257024E-13 -8.788794E-13
       164  21 -1.811311E+05 -8.741312E+04 -5.370885E+04  2.342920E+04  3.929108E-13 -1.268236E-12
       164  22 -1.930449E+05 -7.221793E+04 -5.305256E+04  2.196572E+04  2.067952E-13 -6.617445E-13
       164  23 -1.861901E+05 -7.831489E+04 -5.290099E+04  2.123007E+04 -1.861156E-13 -8.788794E-14
       164  24 -1.792888E+05 -8.420455E+04 -5.269866E+04  2.048585E+04  4.911385E-13 -1.120571E-12
       164  25 -1.897117E+05 -6.960128E+04 -5.186260E+04  1.843154E+04  8.271806E-14 -6.617445E-13
       164  26 -1.834990E+05 -7.543120E+04 -5.178604E+04  1.800616E+04  4.549493E-13 -8.271806E-13
       164  27 -1.772274E+05 -8.095665E+04 -5.163681E+04  1.754423E+04  7.548023E-13 -1.101184E-12
       165   1 -2.155903E+05 -5.648393E+04 -5.441485E+04  2.671464E+04 -5.816114E-14  7.464013E-14
       165   2 -2.080455E+05 -6.357014E+04 -5.432313E+04  2.631206E+04 -1.240771E-13  3.347497E-13
       165   3 -2.005462E+05 -7.080618E+04 -5.427048E+04  2.588264E+04 -1.033976E-13  6.307252E-13
       165   4 -2.108393E+05 -5.513013E+04 -5.319388E+04  2.274342E+04 -3.101927E-14  6.591596E-14
       165   5 -2.039164E+05 -6.175960E+04 -5.313521E+04  2.249716E+04 -1.033976E-13  1.550964E-14
       165   6 -1.970469E+05 -6.847287E+04 -5.310396E+04  2.219417E+04 -8.271806E-14  5.169879E-13
       165   7 -2.057639E+05 -5.369479E+04 -5.189174E+04  1.878541E+04 -2.067952E-14  7.237830E-14
       165   8 -1.995730E+05 -5.988719E+04 -5.189205E+04  1.873369E+04 -1.240771E-13  2.688337E-13
       165   9 -1.934511E+05 -6.608836E+04 -5.190789E+04  1.859301E+04 -1.654361E-13  5.376674E-13
       165  10 -2.155903E+05 -5.648393E+04 -5.441485E+04  2.671464E+04  6.462349E-16  1.615587E-16
       165  11 -2.080455E+05 -6.357014E+04 -5.432313E+04  2.631206E+04  1.809458E-14  9.693523E-16
       165  12 -2.005462E+05 -7.080618E+04 -5.427048E+04  2.588264E+04  1.874081E-14  1.454028E-15
       165  13 -2.108393E+05 -5.513013E+04 -5.319388E+04  2.274342E+04  0.000000E+00 -1.292470E-15
       165  14 -2.039164E+05 -6.175960E+04 -5.313521E+04  2.249716E+04 -1.033976E-14  0.000000E+00
       165  15 -1.970469E+05 -6.847287E+04 -5.310396E+04  2.219417E+04 -2.067952E-14 -3.231174E-15
       165  16 -2.057639E+05 -5.369479E+04 -5.189174E+04  1.878541E+04  0.000000E+00  2.584939E-15
       165  17 -1.995730E+05 -5.988719E+04 -5.189205E+04  1.873369E+04  1.033976E-14  0.000000E+00
       165  18 -1.934511E+05 -6.608836E+04 -5.190789E+04  1.859301E+04  0.000000E+00  1.292470E-15
       165  19 -2.155903E+05 -5.648393E+04 -5.441485E+04  2.671464E+04  4.782138E-14 -8.497988E-14
       165  20 -2.080455E+05 -6.357014E+04 -5.432313E+04  2.631206E+04  4.135903E-14 -3.347497E-13
       165  21 -2.005462E+05 -7.080618E+04 -5.427048E+04  2.588264E+04  1.033976E-13 -6.307252E-13
       165  22 -2.108393E+05 -5.513013E+04 -5.319388E+04  2.274342E+04  3.101927E-14 -6.591596E-14
       165  23 -2.039164E+05 -6.175960E+04 -5.313521E+04  2.249716E+04  2.067952E-14  5.169879E-15
       165  24 -1.970469E+05 -6.847287E+04 -5.310396E+04  2.219417E+04  8.271806E-14 -4.756289E-13
       165  25 -2.057639E+05 -5.369479E+04 -5.189174E+04  1.878541E+04  4.135903E-14 -6.979336E-14
       165  26 -1.995730E+05 -5.988719E+04 -5.189205E+04  1.873369E+04  1.654361E-13 -2.791735E-13
       165  27 -1.934511E+05 -6.608836E+04 -5.190789E+04  1.859301E+04  1.654361E-13 -5.376674E-13
       166   1 -2.031397E+05 -5.294064E+04 -5.121606E+04  1.678092E+04 -1.809458E-14  6.494660E-14
       166   2 -1.972782E+05 -5.894557E+04 -5.124475E+04  1.676802E+04 -1.033976E-13  2.352295E-13
       166   3 -1.914421E+05 -6.504967E+04 -5.129834E+04  1.674320E+04 -3.308722E-13  5.079406E-13
       166   4 -1.992058E+05 -5.185231E+04 -5.021162E+04  1.389943E+04 -2.067952E-14  5.363749E-14
       166   5 -1.936086E+05 -5.758142E+04 -5.023800E+04  1.388036E+04  8.271806E-14  5.169879E-15
       166   6 -1.880565E+05 -6.344186E+04 -5.029967E+04  1.383041E+04 -2.895132E-13  4.446096E-13
       166   7 -1.949484E+05 -5.068496E+04 -4.912667E+04  1.097877E+04 -3.101927E-14  6.074608E-14
       166   8 -1.896641E+05 -5.615909E+04 -4.916463E+04  1.094582E+04 -1.654361E-13  2.429843E-13
       166   9 -1.844455E+05 -6.180022E+04 -4.924914E+04  1.086082E+04 -1.654361E-13  4.756289E-13
       166  10 -2.031397E+05 -5.294064E+04 -5.121606E+04  1.678092E+04 -3.231174E-15  8.077936E-17
       166  11 -1.972782E+05 -5.894557E+04 -5.124475E+04  1.676802E+04  0.000000E+00  1.130911E-15
       166  12 -1.914421E+05 -6.504967E+04 -5.129834E+04  1.674320E+04  2.584939E-15 -8.077936E-17
       166  13 -1.992058E+05 -5.185231E+04 -5.021162E+04  1.389943E+04 -7.754818E-15 -6.462349E-16
       166  14 -1.936086E+05 -5.758142E+04 -5.023800E+04  1.388036E+04 -1.033976E-14  2.584939E-15
       166  15 -1.880565E+05 -6.344186E+04 -5.029967E+04  1.383041E+04  2.584939E-15  2.261822E-15
       166  16 -1.949484E+05 -5.068496E+04 -4.912667E+04  1.097877E+04  0.000000E+00  6.462349E-16
       166  17 -1.896641E+05 -5.615909E+04 -4.916463E+04  1.094582E+04 -1.033976E-14 -1.292470E-15
       166  18 -1.844455E+05 -6.180022E+04 -4.924914E+04  1.086082E+04 -1.550964E-14  6.462349E-16
       166  19 -2.031397E+05 -5.294064E+04 -5.121606E+04  1.678092E+04  2.843433E-14 -6.753154E-14
       166  20 -1.972782E+05 -5.894557E+04 -5.124475E+04  1.676802E+04  2.067952E-14 -2.559090E-13
       166  21 -1.914421E+05 -6.504967E+04 -5.129834E+04  1.674320E+04  3.308722E-13 -5.079406E-13
       166  22 -1.992058E+05 -5.185231E+04 -5.021162E+04  1.389943E+04  4.135903E-14 -5.105255E-14
       166  23 -1.936086E+05 -5.758142E+04 -5.023800E+04  1.388036E+04  4.135903E-14 -5.169879E-15
       166  24 -1.880565E+05 -6.344186E+04 -5.029967E+04  1.383041E+04  2.895132E-13 -4.446096E-13
       166  25 -1.949484E+05 -5.068496E+04 -4.912667E+04  1.097877E+04  3.101927E-14 -6.203855E-14
       166  26 -1.896641E+05 -5.615909E+04 -4.916463E+04  1.094582E+04  2.067952E-13 -2.378144E-13
       166  27 -1.844455E+05 -6.180022E+04 -4.924914E+04  1.086082E+04  1.654361E-13 -4.756289E-13
       167   1 -1.878477E+05 -6.843669E+04 -5.125688E+04  1.661624E+04 -3.825710E-13  6.604520E-13
       167   2 -1.819115E+05 -7.399426E+04 -5.118115E+04  1.630641E+04 -1.861156E-13  7.716044E-13
       167   3 -1.759622E+05 -7.951598E+04 -5.109564E+04  1.601013E+04 -2.042102E-13  1.039792E-12
       167   4 -1.848173E+05 -6.674119E+04 -5.031169E+04  1.377944E+04 -4.549493E-13  5.583469E-13
       167   5 -1.792274E+05 -7.211646E+04 -5.026877E+04  1.363211E+04  1.033976E-13  3.101927E-14
       167   6 -1.736233E+05 -7.742671E+04 -5.021001E+04  1.348229E+04 -3.722313E-13  9.693523E-13
       167   7 -1.813271E+05 -6.496807E+04 -4.925904E+04  1.087958E+04 -4.135903E-13  6.203855E-13
       167   8 -1.761413E+05 -7.017989E+04 -4.926424E+04  1.091339E+04 -3.308722E-13  7.082734E-13
       167   9 -1.709402E+05 -7.529360E+04 -4.924675E+04  1.092656E+04 -5.790264E-13  1.009419E-12
       167  10 -1.878477E+05 -6.843669E+04 -5.125688E+04  1.661624E+04  1.033976E-14 -2.584939E-15
       167  11 -1.819115E+05 -7.399426E+04 -5.118115E+04  1.630641E+04 -1.033976E-14  1.292470E-15
       167  12 -1.759622E+05 -7.951598E+04 -5.109564E+04  1.601013E+04 -2.584939E-15 -1.938705E-15
       167  13 -1.848173E+05 -6.674119E+04 -5.031169E+04  1.377944E+04 -2.067952E-14  0.000000E+00
       167  14 -1.792274E+05 -7.211646E+04 -5.026877E+04  1.363211E+04 -4.135903E-14 -7.754818E-15
       167  15 -1.736233E+05 -7.742671E+04 -5.021001E+04  1.348229E+04 -3.360421E-14 -2.584939E-15
       167  16 -1.813271E+05 -6.496807E+04 -4.925904E+04  1.087958E+04  0.000000E+00 -2.584939E-15
       167  17 -1.761413E+05 -7.017989E+04 -4.926424E+04  1.091339E+04  2.067952E-14  1.292470E-15
       167  18 -1.709402E+05 -7.529360E+04 -4.924675E+04  1.092656E+04  1.680211E-14 -2.584939E-15
       167  19 -1.878477E+05 -6.843669E+04 -5.125688E+04  1.661624E+04  2.998530E-13 -6.604520E-13
       167  20 -1.819115E+05 -7.399426E+04 -5.118115E+04  1.630641E+04  3.515518E-13 -7.716044E-13
       167  21 -1.759622E+05 -7.951598E+04 -5.109564E+04  1.601013E+04  3.696463E-13 -1.081151E-12
       167  22 -1.848173E+05 -6.674119E+04 -5.031169E+04  1.377944E+04  1.240771E-13 -5.583469E-13
       167  23 -1.792274E+05 -7.211646E+04 -5.026877E+04  1.363211E+04  2.274747E-13  1.033976E-14
       167  24 -1.736233E+05 -7.742671E+04 -5.021001E+04  1.348229E+04  5.376674E-13 -9.486728E-13
       167  25 -1.813271E+05 -6.496807E+04 -4.925904E+04  1.087958E+04  3.308722E-13 -5.997059E-13
       167  26 -1.761413E+05 -7.017989E+04 -4.926424E+04  1.091339E+04  4.963084E-13 -7.289529E-13
       167  27 -1.709402E+05 -7.529360E+04 -4.924675E+04  1.092656E+04  1.075335E-12 -1.030098E-12
       168   1 -1.792139E+05 -6.408604E+04 -4.865999E+04  9.260747E+03 -3.257024E-13  5.887200E-13
       168   2 -1.742560E+05 -6.923755E+04 -4.869872E+04  9.371195E+03 -3.851560E-13  7.169976E-13
       168   3 -1.692794E+05 -7.434178E+04 -4.872424E+04  9.502674E+03 -4.284537E-13  1.011479E-12
       168   4 -1.755448E+05 -6.289631E+04 -4.768823E+04  6.506236E+03 -4.135903E-13  5.344362E-13
       168   5 -1.709071E+05 -6.800207E+04 -4.778183E+04  6.807196E+03 -2.895132E-13 -1.938705E-15
       168   6 -1.662450E+05 -7.302178E+04 -4.785336E+04  7.120173E+03 -7.031035E-13  8.944698E-13
       168   7 -1.713801E+05 -6.163618E+04 -4.660325E+04  3.633306E+03 -2.895132E-13  5.932436E-13
       168   8 -1.671011E+05 -6.671503E+04 -4.676323E+04  4.149103E+03 -2.895132E-13  6.992261E-13
       168   9 -1.627931E+05 -7.166458E+04 -4.689154E+04  4.667689E+03 -7.961613E-13  9.748453E-13
       168  10 -1.792139E+05 -6.408604E+04 -4.865999E+04  9.260747E+03  0.000000E+00  0.000000E+00
       168  11 -1.742560E+05 -6.923755E+04 -4.869872E+04  9.371195E+03  1.550964E-14  3.231174E-16
       168  12 -1.692794E+05 -7.434178E+04 -4.872424E+04  9.502674E+03  3.877409E-15  1.615587E-16
       168  13 -1.755448E+05 -6.289631E+04 -4.768823E+04  6.506236E+03  2.067952E-14 -2.584939E-15
       168  14 -1.709071E+05 -6.800207E+04 -4.778183E+04  6.807196E+03 -1.033976E-14 -5.816114E-15
       168  15 -1.662450E+05 -7.302178E+04 -4.785336E+04  7.120173E+03 -1.550964E-14 -4.200527E-15
       168  16 -1.713801E+05 -6.163618E+04 -4.660325E+04  3.633306E+03  2.067952E-14 -6.462349E-16
       168  17 -1.671011E+05 -6.671503E+04 -4.676323E+04  4.149103E+03 -1.550964E-14 -1.938705E-15
       168  18 -1.627931E+05 -7.166458E+04 -4.689154E+04  4.667689E+03 -1.938705E-14  4.846761E-16
       168  19 -1.792139E+05 -6.408604E+04 -4.865999E+04  9.260747E+03  3.257024E-13 -5.783802E-13
       168  20 -1.742560E+05 -6.923755E+04 -4.869872E+04  9.371195E+03  3.851560E-13 -7.169976E-13
       168  21 -1.692794E+05 -7.434178E+04 -4.872424E+04  9.502674E+03  4.284537E-13 -1.021818E-12
       168  22 -1.755448E+05 -6.289631E+04 -4.768823E+04  6.506236E+03  4.135903E-13 -5.344362E-13
       168  23 -1.709071E+05 -6.800207E+04 -4.778183E+04  6.807196E+03 -4.135903E-14 -8.401053E-15
       168  24 -1.662450E+05 -7.302178E+04 -4.785336E+04  7.120173E+03  7.031035E-13 -8.634505E-13
       168  25 -1.713801E+05 -6.163618E+04 -4.660325E+04  3.633306E+03  2.895132E-13 -5.984135E-13
       168  26 -1.671011E+05 -6.671503E+04 -4.676323E+04  4.149103E+03  3.722313E-13 -7.018111E-13
       168  27 -1.627931E+05 -7.166458E+04 -4.689154E+04  4.667689E+03  6.307252E-13 -9.800152E-13
       169   1 -1.923750E+05 -5.003019E+04 -4.848103E+04  9.231439E+03 -3.812786E-14  6.252322E-14
       169   2 -1.873060E+05 -5.546976E+04 -4.855515E+04  9.204407E+03 -6.979336E-14  2.424188E-13
       169   3 -1.822449E+05 -6.099629E+04 -4.864824E+04  9.189182E+03 -3.825710E-13  4.971162E-13
       169   4 -1.877167E+05 -4.884673E+04 -4.731269E+04  6.153543E+03 -4.394397E-14  5.387983E-14
       169   5 -1.829921E+05 -5.429231E+04 -4.745688E+04  6.247611E+03 -4.135903E-14  2.584939E-15
       169   6 -1.782783E+05 -5.980116E+04 -4.761589E+04  6.341535E+03 -1.240771E-13  4.245763E-13
       169   7 -1.826137E+05 -4.755821E+04 -4.603438E+04  2.910345E+03 -2.067952E-14  6.026140E-14
       169   8 -1.782780E+05 -5.304072E+04 -4.626375E+04  3.142632E+03 -1.240771E-13  2.371682E-13
       169   9 -1.739587E+05 -5.856107E+04 -4.650395E+04  3.362041E+03 -2.481542E-13  4.730439E-13
       169  10 -1.923750E+05 -5.003019E+04 -4.848103E+04  9.231439E+03  4.523644E-15  1.615587E-16
       169  11 -1.873060E+05 -5.546976E+04 -4.855515E+04  9.204407E+03 -7.754818E-15 -9.289626E-16
       169  12 -1.822449E+05 -6.099629E+04 -4.864824E+04  9.189182E+03 -1.421717E-14  2.524355E-16
       169  13 -1.877167E+05 -4.884673E+04 -4.731269E+04  6.153543E+03  0.000000E+00 -4.442865E-16
       169  14 -1.829921E+05 -5.429231E+04 -4.745688E+04  6.247611E+03 -1.550964E-14 -2.584939E-15
       169  15 -1.782783E+05 -5.980116E+04 -4.761589E+04  6.341535E+03 -5.169879E-15  1.696366E-15
       169  16 -1.826137E+05 -4.755821E+04 -4.603438E+04  2.910345E+03  5.169879E-15 -1.615587E-16
       169  17 -1.782780E+05 -5.304072E+04 -4.626375E+04  3.142632E+03 -1.033976E-14  1.615587E-16
       169  18 -1.739587E+05 -5.856107E+04 -4.650395E+04  3.362041E+03 -5.169879E-15 -8.077936E-17
       169  19 -1.923750E+05 -5.003019E+04 -4.848103E+04  9.231439E+03  4.846761E-14 -6.252322E-14
       169  20 -1.873060E+05 -5.546976E+04 -4.855515E+04  9.204407E+03  1.111524E-13 -2.320791E-13
       169  21 -1.822449E+05 -6.099629E+04 -4.864824E+04  9.189182E+03  2.171349E-13 -4.867764E-13
       169  22 -1.877167E+05 -4.884673E+04 -4.731269E+04  6.153543E+03  3.360421E-14 -5.323360E-14
       169  23 -1.829921E+05 -5.429231E+04 -4.745688E+04  6.247611E+03  0.000000E+00 -2.584939E-15
       169  24 -1.782783E+05 -5.980116E+04 -4.761589E+04  6.341535E+03  1.240771E-13 -4.245763E-13
       169  25 -1.826137E+05 -4.755821E+04 -4.603438E+04  2.910345E+03  4.135903E-14 -6.058452E-14
       169  26 -1.782780E+05 -5.304072E+04 -4.626375E+04  3.142632E+03  1.240771E-13 -2.410456E-13
       169  27 -1.739587E+05 -5.856107E+04 -4.650395E+04  3.362041E+03  1.654361E-13 -4.756289E-13
       170   1 -2.681991E+05 -7.317221E+04 -6.827425E+04  7.289483E+04 -1.008126E-13  1.731909E-13
       170   2 -2.524727E+05 -8.959846E+04 -6.841423E+04  7.008019E+04 -3.618915E-13  4.601192E-13
       170   3 -2.364645E+05 -1.048686E+05 -6.826661E+04  6.727921E+04 -9.098987E-13  1.333829E-12
       170   4 -2.585216E+05 -7.029367E+04 -6.576306E+04  6.533417E+04 -3.101927E-14  1.137373E-13
       170   5 -2.439597E+05 -8.521831E+04 -6.583561E+04  6.284280E+04 -4.135903E-14 -4.135903E-14
       170   6 -2.290512E+05 -9.862609E+04 -6.553545E+04  6.029618E+04 -5.790264E-13  6.617445E-13
       170   7 -2.498454E+05 -6.765787E+04 -6.350066E+04  5.792811E+04 -6.203855E-14  1.240771E-13
       170   8 -2.366817E+05 -8.108372E+04 -6.355308E+04  5.586786E+04 -3.308722E-13  6.203855E-13
       170   9 -2.231038E+05 -9.258260E+04 -6.313729E+04  5.367696E+04 -1.654361E-13  9.098987E-13
       170  10 -2.681991E+05 -7.317221E+04 -6.827425E+04  7.289483E+04 -5.169879E-15  0.000000E+00
       170  11 -2.524727E+05 -8.959846E+04 -6.841423E+04  7.008019E+04 -5.169879E-15  2.584939E-15
       170  12 -2.364645E+05 -1.048686E+05 -6.826661E+04  6.727921E+04  1.550964E-14  6.462349E-15
       170  13 -2.585216E+05 -7.029367E+04 -6.576306E+04  6.533417E+04 -5.169879E-15  2.067952E-14
       170  14 -2.439597E+05 -8.521831E+04 -6.583561E+04  6.284280E+04  2.067952E-14 -2.067952E-14
       170  15 -2.290512E+05 -9.862609E+04 -6.553545E+04  6.029618E+04  2.067952E-14 -1.550964E-14
       170  16 -2.498454E+05 -6.765787E+04 -6.350066E+04  5.792811E+04  0.000000E+00  0.000000E+00
       170  17 -2.366817E+05 -8.108372E+04 -6.355308E+04  5.586786E+04  0.000000E+00  0.000000E+00
       170  18 -2.231038E+05 -9.258260E+04 -6.313729E+04  5.367696E+04  3.101927E-14  0.000000E+00
       170  19 -2.681991E+05 -7.317221E+04 -6.827425E+04  7.289483E+04  1.008126E-13 -1.731909E-13
       170  20 -2.524727E+05 -8.959846E+04 -6.841423E+04  7.008019E+04  3.618915E-13 -4.601192E-13
       170  21 -2.364645E+05 -1.048686E+05 -6.826661E+04  6.727921E+04  4.135903E-13 -1.499265E-12
       170  22 -2.585216E+05 -7.029367E+04 -6.576306E+04  6.533417E+04  7.237830E-14 -1.550964E-13
       170  23 -2.439597E+05 -8.521831E+04 -6.583561E+04  6.284280E+04  4.135903E-14  4.135903E-14
       170  24 -2.290512E+05 -9.862609E+04 -6.553545E+04  6.029618E+04  8.271806E-14 -8.271806E-13
       170  25 -2.498454E+05 -6.765787E+04 -6.350066E+04  5.792811E+04  6.203855E-14 -1.240771E-13
       170  26 -2.366817E+05 -8.108372E+04 -6.355308E+04  5.586786E+04  1.654361E-13 -5.376674E-13
       170  27 -2.231038E+05 -9.258260E+04 -6.313729E+04  5.367696E+04  1.654361E-13 -1.158053E-12
       171   1 -2.265114E+05 -1.122044E+05 -6.774316E+04  6.438136E+04 -1.861156E-13  1.550964E-12
       171   2 -2.075485E+05 -1.225663E+05 -6.602297E+04  5.769572E+04 -6.514047E-13  1.887006E-12
       171   3 -1.886640E+05 -1.329792E+05 -6.432864E+04  5.121223E+04 -9.073137E-13  2.604326E-12
       171   4 -2.212320E+05 -1.055443E+05 -6.535526E+04  5.850831E+04 -2.481542E-13  1.033976E-12
       171   5 -2.052156E+05 -1.158108E+05 -6.420529E+04  5.326672E+04  2.895132E-13  8.271806E-14
       171   6 -1.887952E+05 -1.246526E+05 -6.268956E+04  4.778742E+04 -1.602662E-12  1.711230E-12
       171   7 -2.150204E+05 -9.913114E+04 -6.283032E+04  5.182257E+04 -3.308722E-13  1.075335E-12
       171   8 -2.030309E+05 -1.093718E+05 -6.248054E+04  4.853200E+04 -1.654361E-13  1.737079E-12
       171   9 -1.900469E+05 -1.161458E+05 -6.123854E+04  4.443063E+04 -1.550964E-12  2.285086E-12
       171  10 -2.265114E+05 -1.122044E+05 -6.774316E+04  6.438136E+04  4.135903E-14  0.000000E+00
       171  11 -2.075485E+05 -1.225663E+05 -6.602297E+04  5.769572E+04  8.271806E-14  3.101927E-14
       171  12 -1.886640E+05 -1.329792E+05 -6.432864E+04  5.121223E+04  1.292470E-14  5.686867E-14
       171  13 -2.212320E+05 -1.055443E+05 -6.535526E+04  5.850831E+04  0.000000E+00 -4.135903E-14
       171  14 -2.052156E+05 -1.158108E+05 -6.420529E+04  5.326672E+04  0.000000E+00 -6.203855E-14
       171  15 -1.887952E+05 -1.246526E+05 -6.268956E+04  4.778742E+04  1.240771E-13  4.652891E-14
       171  16 -2.150204E+05 -9.913114E+04 -6.283032E+04  5.182257E+04 -2.067952E-14 -2.067952E-14
       171  17 -2.030309E+05 -1.093718E+05 -6.248054E+04  4.853200E+04  8.271806E-14  3.101927E-14
       171  18 -1.900469E+05 -1.161458E+05 -6.123854E+04  4.443063E+04  5.428373E-14 -2.584939E-15
       171  19 -2.265114E+05 -1.122044E+05 -6.774316E+04  6.438136E+04  8.478601E-13 -1.550964E-12
       171  20 -2.075485E+05 -1.225663E+05 -6.602297E+04  5.769572E+04  9.822770E-13 -1.887006E-12
       171  21 -1.886640E+05 -1.329792E+05 -6.432864E+04  5.121223E+04  1.238186E-12 -2.273454E-12
       171  22 -2.212320E+05 -1.055443E+05 -6.535526E+04  5.850831E+04  5.790264E-13 -1.033976E-12
       171  23 -2.052156E+05 -1.158108E+05 -6.420529E+04  5.326672E+04 -2.895132E-13 -2.481542E-13
       171  24 -1.887952E+05 -1.246526E+05 -6.268956E+04  4.778742E+04  9.409179E-13 -2.042102E-12
       171  25 -2.150204E+05 -9.913114E+04 -6.283032E+04  5.182257E+04  0.000000E+00 -1.075335E-12
       171  26 -2.030309E+05 -1.093718E+05 -6.248054E+04  4.853200E+04 -1.654361E-13 -1.406207E-12
       171  27 -1.900469E+05 -1.161458E+05 -6.123854E+04  4.443063E+04  1.550964E-12 -2.119650E-12
       172   1 -2.122166E+05 -9.647770E+04 -6.173885E+04  4.850240E+04 -1.199412E-12  1.199412E-12
       172   2 -2.011445E+05 -1.042909E+05 -6.108709E+04  4.522775E+04 -4.239301E-13  1.344168E-12
       172   3 -1.899470E+05 -1.116008E+05 -6.030956E+04  4.194828E+04 -1.912855E-13  1.978771E-12
       172   4 -2.088823E+05 -9.112605E+04 -6.000166E+04  4.347469E+04 -1.654361E-13  9.926167E-13
       172   5 -1.984971E+05 -9.908572E+04 -5.951656E+04  4.080612E+04  4.135903E-14  4.135903E-14
       172   6 -1.879597E+05 -1.064349E+05 -5.887892E+04  3.812869E+04 -8.271806E-14  1.101184E-12
       172   7 -2.055031E+05 -8.585034E+04 -5.827069E+04  3.827811E+04 -4.963084E-13  1.116694E-12
       172   8 -1.958494E+05 -9.396014E+04 -5.796192E+04  3.625301E+04 -2.481542E-13  1.199412E-12
       172   9 -1.860197E+05 -1.013418E+05 -5.747229E+04  3.421913E+04  1.654361E-13  1.556134E-12
       172  10 -2.122166E+05 -9.647770E+04 -6.173885E+04  4.850240E+04 -2.067952E-14 -1.033976E-14
       172  11 -2.011445E+05 -1.042909E+05 -6.108709E+04  4.522775E+04 -1.137373E-13  3.101927E-14
       172  12 -1.899470E+05 -1.116008E+05 -6.030956E+04  4.194828E+04 -5.169879E-15 -3.618915E-14
       172  13 -2.088823E+05 -9.112605E+04 -6.000166E+04  4.347469E+04  0.000000E+00  0.000000E+00
       172  14 -1.984971E+05 -9.908572E+04 -5.951656E+04  4.080612E+04 -6.203855E-14  4.135903E-14
       172  15 -1.879597E+05 -1.064349E+05 -5.887892E+04  3.812869E+04  2.067952E-14 -5.169879E-15
       172  16 -2.055031E+05 -8.585034E+04 -5.827069E+04  3.827811E+04  2.067952E-14 -3.101927E-14
       172  17 -1.958494E+05 -9.396014E+04 -5.796192E+04  3.625301E+04 -1.033976E-14 -2.067952E-14
       172  18 -1.860197E+05 -1.013418E+05 -5.747229E+04  3.421913E+04 -1.550964E-14 -6.462349E-15
       172  19 -2.122166E+05 -9.647770E+04 -6.173885E+04  4.850240E+04  3.722313E-13 -1.364848E-12
       172  20 -2.011445E+05 -1.042909E+05 -6.108709E+04  4.522775E+04  7.548023E-13 -1.509605E-12
       172  21 -1.899470E+05 -1.116008E+05 -6.030956E+04  4.194828E+04  5.221578E-13 -1.813335E-12
       172  22 -2.088823E+05 -9.112605E+04 -6.000166E+04  4.347469E+04  0.000000E+00 -9.098987E-13
       172  23 -1.984971E+05 -9.908572E+04 -5.951656E+04  4.080612E+04 -4.135903E-14  1.240771E-13
       172  24 -1.879597E+05 -1.064349E+05 -5.887892E+04  3.812869E+04  8.271806E-14 -1.266620E-12
       172  25 -2.055031E+05 -8.585034E+04 -5.827069E+04  3.827811E+04  4.963084E-13 -1.199412E-12
       172  26 -1.958494E+05 -9.396014E+04 -5.796192E+04  3.625301E+04  5.790264E-13 -1.033976E-12
       172  27 -1.860197E+05 -1.013418E+05 -5.747229E+04  3.421913E+04  4.963084E-13 -1.390697E-12
       173   1 -2.452812E+05 -6.585918E+04 -6.222808E+04  5.386959E+04 -3.877409E-14  1.163223E-13
       173   2 -2.327808E+05 -7.826562E+04 -6.220929E+04  5.214984E+04 -3.929108E-13  4.290999E-13
       173   3 -2.202271E+05 -9.054492E+04 -6.215441E+04  5.049752E+04 -5.169879E-13  1.163223E-12
       173   4 -2.380126E+05 -6.368750E+04 -6.034001E+04  4.730528E+04 -2.067952E-14  9.822770E-14
       173   5 -2.266982E+05 -7.494871E+04 -6.032938E+04  4.600438E+04 -1.654361E-13  4.135903E-14
       173   6 -2.152759E+05 -8.568101E+04 -6.019137E+04  4.469042E+04 -2.481542E-13  7.858216E-13
       173   7 -2.310177E+05 -6.158075E+04 -5.851969E+04  4.081002E+04 -4.135903E-14  1.189072E-13
       173   8 -2.212255E+05 -7.172763E+04 -5.859062E+04  4.008790E+04  8.271806E-14  4.549493E-13
       173   9 -2.112982E+05 -8.087078E+04 -5.843379E+04  3.927499E+04 -4.963084E-13  9.098987E-13
       173  10 -2.452812E+05 -6.585918E+04 -6.222808E+04  5.386959E+04 -5.169879E-15 -8.401053E-15
       173  11 -2.327808E+05 -7.826562E+04 -6.220929E+04  5.214984E+04  5.169879E-15  1.033976E-14
       173  12 -2.202271E+05 -9.054492E+04 -6.215441E+04  5.049752E+04 -3.877409E-14 -3.231174E-15
       173  13 -2.380126E+05 -6.368750E+04 -6.034001E+04  4.730528E+04 -1.033976E-14 -1.292470E-14
       173  14 -2.266982E+05 -7.494871E+04 -6.032938E+04  4.600438E+04 -2.067952E-14  1.033976E-14
       173  15 -2.152759E+05 -8.568101E+04 -6.019137E+04  4.469042E+04 -4.652891E-14  3.618915E-14
       173  16 -2.310177E+05 -6.158075E+04 -5.851969E+04  4.081002E+04  1.033976E-14  0.000000E+00
       173  17 -2.212255E+05 -7.172763E+04 -5.859062E+04  4.008790E+04 -4.135903E-14  0.000000E+00
       173  18 -2.112982E+05 -8.087078E+04 -5.843379E+04  3.927499E+04 -1.033976E-14 -5.169879E-15
       173  19 -2.452812E+05 -6.585918E+04 -6.222808E+04  5.386959E+04  1.809458E-14 -1.370018E-13
       173  20 -2.327808E+05 -7.826562E+04 -6.220929E+04  5.214984E+04  6.203855E-14 -4.704590E-13
       173  21 -2.202271E+05 -9.054492E+04 -6.215441E+04  5.049752E+04  5.169879E-13 -1.163223E-12
       173  22 -2.380126E+05 -6.368750E+04 -6.034001E+04  4.730528E+04  6.203855E-14 -1.085675E-13
       173  23 -2.266982E+05 -7.494871E+04 -6.032938E+04  4.600438E+04  8.271806E-14 -4.135903E-14
       173  24 -2.152759E+05 -8.568101E+04 -6.019137E+04  4.469042E+04  2.481542E-13 -7.858216E-13
       173  25 -2.310177E+05 -6.158075E+04 -5.851969E+04  4.081002E+04  4.135903E-14 -1.189072E-13
       173  26 -2.212255E+05 -7.172763E+04 -5.859062E+04  4.008790E+04  8.271806E-14 -3.722313E-13
       173  27 -2.112982E+05 -8.087078E+04 -5.843379E+04  3.927499E+04  4.963084E-13 -9.098987E-13
       174   1 -1.081886E+05 -1.023487E+05 -4.210747E+04  1.371054E+03 -9.264423E-12 -1.852885E-11
       174   2 -1.196980E+05 -1.025834E+05 -4.445627E+04  3.220497E+03  5.293956E-12 -6.088049E-11
       174   3 -1.312343E+05 -1.029242E+05 -4.683169E+04  5.067173E+03  1.340033E-11 -4.069729E-11
       174   4 -1.142637E+05 -1.030458E+05 -4.346191E+04  9.546840E+02 -1.588187E-11  2.117582E-11
       174   5 -1.248150E+05 -1.034684E+05 -4.565668E+04  2.173272E+03 -7.940934E-12  1.058791E-11
       174   6 -1.353509E+05 -1.040203E+05 -4.787423E+04  3.514826E+03 -1.985233E-12 -9.264423E-12
       174   7 -1.214795E+05 -1.039001E+05 -4.507593E+04  8.245598E+02 -1.058791E-11  0.000000E+00
       174   8 -1.307350E+05 -1.044150E+05 -4.702999E+04  1.240876E+03  0.000000E+00 -1.058791E-11
       174   9 -1.399084E+05 -1.050927E+05 -4.900023E+04  1.941451E+03  2.911676E-11  7.940934E-12
       174  10 -1.081886E+05 -1.023487E+05 -4.210747E+04  1.371054E+03  1.323489E-12  2.646978E-12
       174  11 -1.196980E+05 -1.025834E+05 -4.445627E+04  3.220497E+03 -2.646978E-12  7.940934E-12
       174  12 -1.312343E+05 -1.029242E+05 -4.683169E+04  5.067173E+03  6.617445E-13  0.000000E+00
       174  13 -1.142637E+05 -1.030458E+05 -4.346191E+04  9.546840E+02  2.646978E-12  0.000000E+00
       174  14 -1.248150E+05 -1.034684E+05 -4.565668E+04  2.173272E+03 -6.617445E-12  0.000000E+00
       174  15 -1.353509E+05 -1.040203E+05 -4.787423E+04  3.514826E+03  3.639595E-12  0.000000E+00
       174  16 -1.214795E+05 -1.039001E+05 -4.507593E+04  8.245598E+02  1.323489E-12  7.940934E-12
       174  17 -1.307350E+05 -1.044150E+05 -4.702999E+04  1.240876E+03  2.646978E-12  3.970467E-12
       174  18 -1.399084E+05 -1.050927E+05 -4.900023E+04  1.941451E+03 -6.617445E-13  2.646978E-12
       174  19 -1.081886E+05 -1.023487E+05 -4.210747E+04  1.371054E+03 -1.323489E-12  6.088049E-11
       174  20 -1.196980E+05 -1.025834E+05 -4.445627E+04  3.220497E+03 -1.588187E-11 -2.646978E-12
       174  21 -1.312343E+05 -1.029242E+05 -4.683169E+04  5.067173E+03 -2.812414E-12 -2.283018E-11
       174  22 -1.142637E+05 -1.030458E+05 -4.346191E+04  9.546840E+02 -1.588187E-11  2.117582E-11
       174  23 -1.248150E+05 -1.034684E+05 -4.565668E+04  2.173272E+03 -1.323489E-11  1.058791E-11
       174  24 -1.353509E+05 -1.040203E+05 -4.787423E+04  3.514826E+03  1.985233E-12  9.264423E-12
       174  25 -1.214795E+05 -1.039001E+05 -4.507593E+04  8.245598E+02  1.058791E-11  0.000000E+00
       174  26 -1.307350E+05 -1.044150E+05 -4.702999E+04  1.240876E+03  0.000000E+00 -1.058791E-11
       174  27 -1.399084E+05 -1.050927E+05 -4.900023E+04  1.941451E+03 -7.940934E-12  1.323489E-11
       175   1 -1.369844E+05 -1.028914E+05 -4.797516E+04  6.024516E+03 -1.191140E-11  4.764560E-11
       175   2 -1.463961E+05 -1.037211E+05 -5.002343E+04  8.528520E+03 -2.646978E-12 -3.176374E-11
       175   3 -1.559289E+05 -1.043200E+05 -5.204977E+04  1.075892E+04  7.775498E-12 -9.595295E-12
       175   4 -1.411338E+05 -1.042833E+05 -4.908342E+04  4.239475E+03  0.000000E+00 -1.058791E-11
       175   5 -1.519619E+05 -1.058535E+05 -5.156308E+04  6.440526E+03 -7.940934E-12 -3.176374E-11
       175   6 -1.627948E+05 -1.071231E+05 -5.398358E+04  8.480056E+03  1.985233E-12  5.955700E-11
       175   7 -1.461671E+05 -1.058193E+05 -5.039727E+04  2.539376E+03  0.000000E+00 -4.235165E-11
       175   8 -1.580504E+05 -1.080462E+05 -5.321932E+04  4.382918E+03  1.588187E-11 -2.117582E-11
       175   9 -1.698572E+05 -1.099121E+05 -5.595387E+04  6.182357E+03  1.323489E-11 -1.058791E-11
       175  10 -1.369844E+05 -1.028914E+05 -4.797516E+04  6.024516E+03  0.000000E+00 -2.646978E-12
       175  11 -1.463961E+05 -1.037211E+05 -5.002343E+04  8.528520E+03  3.308722E-12  5.293956E-12
       175  12 -1.559289E+05 -1.043200E+05 -5.204977E+04  1.075892E+04  1.654361E-12  1.654361E-12
       175  13 -1.411338E+05 -1.042833E+05 -4.908342E+04  4.239475E+03 -5.293956E-12  0.000000E+00
       175  14 -1.519619E+05 -1.058535E+05 -5.156308E+04  6.440526E+03  2.646978E-12 -1.058791E-11
       175  15 -1.627948E+05 -1.071231E+05 -5.398358E+04  8.480056E+03 -6.617445E-13  1.985233E-12
       175  16 -1.461671E+05 -1.058193E+05 -5.039727E+04  2.539376E+03  0.000000E+00  2.646978E-12
       175  17 -1.580504E+05 -1.080462E+05 -5.321932E+04  4.382918E+03 -2.646978E-12 -6.617445E-12
       175  18 -1.698572E+05 -1.099121E+05 -5.595387E+04  6.182357E+03  1.654361E-13 -7.610062E-12
       175  19 -1.369844E+05 -1.028914E+05 -4.797516E+04  6.024516E+03  1.191140E-11 -4.764560E-11
       175  20 -1.463961E+05 -1.037211E+05 -5.002343E+04  8.528520E+03 -7.940934E-12  1.058791E-11
       175  21 -1.559289E+05 -1.043200E+05 -5.204977E+04  1.075892E+04 -7.775498E-12  3.077112E-11
       175  22 -1.411338E+05 -1.042833E+05 -4.908342E+04  4.239475E+03  1.058791E-11  5.293956E-11
       175  23 -1.519619E+05 -1.058535E+05 -5.156308E+04  6.440526E+03 -1.323489E-11 -5.293956E-11
       175  24 -1.627948E+05 -1.071231E+05 -5.398358E+04  8.480056E+03  8.602678E-12 -1.720536E-11
       175  25 -1.461671E+05 -1.058193E+05 -5.039727E+04  2.539376E+03  1.058791E-11  4.235165E-11
       175  26 -1.580504E+05 -1.080462E+05 -5.321932E+04  4.382918E+03 -1.588187E-11  2.117582E-11
       175  27 -1.698572E+05 -1.099121E+05 -5.595387E+04  6.182357E+03 -1.323489E-11 -1.058791E-11
       176   1 -1.478859E+05 -1.064050E+05 -5.085819E+04  1.599032E+03 -8.602678E-12  2.646978E-11
       176   2 -1.597537E+05 -1.088332E+05 -5.371739E+04  3.469382E+03  1.191140E-11  3.970467E-12
       176   3 -1.717488E+05 -1.117953E+05 -5.670883E+04  5.065371E+03  6.948317E-12  5.459392E-11
       176   4 -1.483647E+05 -1.068894E+05 -5.105083E+04  4.034362E+02 -1.058791E-11  2.117582E-11
       176   5 -1.590649E+05 -1.089814E+05 -5.360925E+04  1.597560E+03 -1.852885E-11  5.293956E-12
       176   6 -1.700070E+05 -1.121164E+05 -5.642466E+04  2.728432E+03 -1.389663E-11  1.323489E-11
       176   7 -1.491912E+05 -1.074287E+05 -5.132398E+04 -6.092044E+02  1.588187E-11 -2.117582E-11
       176   8 -1.582606E+05 -1.091086E+05 -5.347383E+04 -2.749045E+02  1.588187E-11 -4.235165E-11
       176   9 -1.678167E+05 -1.124992E+05 -5.606317E+04  3.052769E+02  7.279189E-12 -1.852885E-11
       176  10 -1.478859E+05 -1.064050E+05 -5.085819E+04  1.599032E+03  0.000000E+00  2.646978E-12
       176  11 -1.597537E+05 -1.088332E+05 -5.371739E+04  3.469382E+03 -6.617445E-13 -3.970467E-12
       176  12 -1.717488E+05 -1.117953E+05 -5.670883E+04  5.065371E+03 -1.654361E-12  9.926167E-13
       176  13 -1.483647E+05 -1.068894E+05 -5.105083E+04  4.034362E+02  0.000000E+00  0.000000E+00
       176  14 -1.590649E+05 -1.089814E+05 -5.360925E+04  1.597560E+03  5.293956E-12  1.058791E-11
       176  15 -1.700070E+05 -1.121164E+05 -5.642466E+04  2.728432E+03  9.926167E-13 -1.323489E-12
       176  16 -1.491912E+05 -1.074287E+05 -5.132398E+04 -6.092044E+02 -1.323489E-12 -5.293956E-12
       176  17 -1.582606E+05 -1.091086E+05 -5.347383E+04 -2.749045E+02 -1.323489E-12  2.646978E-12
       176  18 -1.678167E+05 -1.124992E+05 -5.606317E+04  3.052769E+02 -8.271806E-13 -4.963084E-12
       176  19 -1.478859E+05 -1.064050E+05 -5.085819E+04  1.599032E+03  8.602678E-12  1.588187E-11
       176  20 -1.597537E+05 -1.088332E+05 -5.371739E+04  3.469382E+03 -1.191140E-11 -3.970467E-12
       176  21 -1.717488E+05 -1.117953E+05 -5.670883E+04  5.065371E+03 -6.948317E-12 -3.341810E-11
       176  22 -1.483647E+05 -1.068894E+05 -5.105083E+04  4.034362E+02  1.058791E-11  0.000000E+00
       176  23 -1.590649E+05 -1.089814E+05 -5.360925E+04  1.597560E+03 -2.646978E-12 -4.764560E-11
       176  24 -1.700070E+05 -1.121164E+05 -5.642466E+04  2.728432E+03  1.389663E-11 -1.323489E-11
       176  25 -1.491912E+05 -1.074287E+05 -5.132398E+04 -6.092044E+02 -2.646978E-11  2.117582E-11
       176  26 -1.582606E+05 -1.091086E+05 -5.347383E+04 -2.749045E+02 -5.293956E-12  2.117582E-11
       176  27 -1.678167E+05 -1.124992E+05 -5.606317E+04  3.052769E+02  3.308722E-12  1.852885E-11
       177   1 -1.248072E+05 -1.040994E+05 -4.578131E+04  1.319242E+02 -7.279189E-12  7.940934E-12
       177   2 -1.332244E+05 -1.047724E+05 -4.759936E+04  7.318409E+02 -3.308722E-12  5.293956E-11
       177   3 -1.417277E+05 -1.055251E+05 -4.945057E+04  1.172777E+03  1.009160E-11  1.058791E-11
       177   4 -1.275785E+05 -1.043458E+05 -4.638486E+04 -4.499467E+02  5.293956E-12  0.000000E+00
       177   5 -1.352476E+05 -1.052089E+05 -4.809131E+04 -6.183397E+01 -2.646978E-12  3.705769E-11
       177   6 -1.429699E+05 -1.061964E+05 -4.983325E+04  2.651840E+02 -5.293956E-12  5.293956E-12
       177   7 -1.308258E+05 -1.046320E+05 -4.709155E+04 -1.052027E+03  1.588187E-11  0.000000E+00
       177   8 -1.374599E+05 -1.056371E+05 -4.861940E+04 -9.542500E+02  1.058791E-11 -1.058791E-11
       177   9 -1.441074E+05 -1.068273E+05 -5.018693E+04 -7.844804E+02  1.654361E-11 -1.852885E-11
       177  10 -1.248072E+05 -1.040994E+05 -4.578131E+04  1.319242E+02  1.323489E-12  2.646978E-12
       177  11 -1.332244E+05 -1.047724E+05 -4.759936E+04  7.318409E+02  1.323489E-12 -1.323489E-12
       177  12 -1.417277E+05 -1.055251E+05 -4.945057E+04  1.172777E+03 -8.271806E-13  9.926167E-13
       177  13 -1.275785E+05 -1.043458E+05 -4.638486E+04 -4.499467E+02  0.000000E+00  0.000000E+00
       177  14 -1.352476E+05 -1.052089E+05 -4.809131E+04 -6.183397E+01  5.293956E-12  2.117582E-11
       177  15 -1.429699E+05 -1.061964E+05 -4.983325E+04  2.651840E+02 -2.316106E-12  5.293956E-12
       177  16 -1.308258E+05 -1.046320E+05 -4.709155E+04 -1.052027E+03  0.000000E+00  0.000000E+00
       177  17 -1.374599E+05 -1.056371E+05 -4.861940E+04 -9.542500E+02  1.323489E-12 -2.646978E-12
       177  18 -1.441074E+05 -1.068273E+05 -5.018693E+04 -7.844804E+02  1.985233E-12  4.632211E-12
       177  19 -1.248072E+05 -1.040994E+05 -4.578131E+04  1.319242E+02  1.786710E-11  1.323489E-11
       177  20 -1.332244E+05 -1.047724E+05 -4.759936E+04  7.318409E+02 -2.845501E-11  1.058791E-11
       177  21 -1.417277E+05 -1.055251E+05 -4.945057E+04  1.172777E+03  1.108422E-11 -3.176374E-11
       177  22 -1.275785E+05 -1.043458E+05 -4.638486E+04 -4.499467E+02 -1.588187E-11  2.117582E-11
       177  23 -1.352476E+05 -1.052089E+05 -4.809131E+04 -6.183397E+01  2.646978E-12 -1.588187E-11
       177  24 -1.429699E+05 -1.061964E+05 -4.983325E+04  2.651840E+02 -5.293956E-12 -5.293956E-12
       177  25 -1.308258E+05 -1.046320E+05 -4.709155E+04 -1.052027E+03 -1.588187E-11  2.117582E-11
       177  26 -1.374599E+05 -1.056371E+05 -4.861940E+04 -9.542500E+02  0.000000E+00  1.058791E-11
       177  27 -1.441074E+05 -1.068273E+05 -5.018693E+04 -7.844804E+02 -2.713152E-11  1.852885E-11
       178   1 -1.198904E+05 -1.185534E+05 -4.768876E+04  1.655490E+04 -8.685396E-13  2.812414E-12
       178   2 -1.206301E+05 -1.187484E+05 -4.787570E+04  1.707357E+04 -1.757759E-12  2.491882E-12
       178   3 -1.212261E+05 -1.191243E+05 -4.807008E+04  1.757758E+04 -2.057612E-12  2.790442E-12
       178   4 -1.224572E+05 -1.177182E+05 -4.803508E+04  1.486677E+04 -9.926167E-13  2.398824E-12
       178   5 -1.236555E+05 -1.171276E+05 -4.815662E+04  1.532462E+04  3.308722E-13 -4.135903E-14
       178   6 -1.247478E+05 -1.166571E+05 -4.828099E+04  1.576763E+04 -1.985233E-12  2.362635E-12
       178   7 -1.264276E+05 -1.177538E+05 -4.883627E+04  1.384603E+04 -1.985233E-12  2.729696E-12
       178   8 -1.281642E+05 -1.164446E+05 -4.892175E+04  1.428973E+04 -9.926167E-13  2.316106E-12
       178   9 -1.298377E+05 -1.152013E+05 -4.900780E+04  1.472207E+04 -5.376674E-13  2.491882E-12
       178  10 -1.198904E+05 -1.185534E+05 -4.768876E+04  1.655490E+04  8.271806E-14  5.169879E-15
       178  11 -1.206301E+05 -1.187484E+05 -4.787570E+04  1.707357E+04  4.135903E-14  0.000000E+00
       178  12 -1.212261E+05 -1.191243E+05 -4.807008E+04  1.757758E+04 -3.618915E-14  5.816114E-15
       178  13 -1.224572E+05 -1.177182E+05 -4.803508E+04  1.486677E+04  0.000000E+00  0.000000E+00
       178  14 -1.236555E+05 -1.171276E+05 -4.815662E+04  1.532462E+04  0.000000E+00  1.033976E-14
       178  15 -1.247478E+05 -1.166571E+05 -4.828099E+04  1.576763E+04  4.135903E-14 -1.033976E-14
       178  16 -1.264276E+05 -1.177538E+05 -4.883627E+04  1.384603E+04  0.000000E+00 -5.169879E-15
       178  17 -1.281642E+05 -1.164446E+05 -4.892175E+04  1.428973E+04 -1.861156E-13  0.000000E+00
       178  18 -1.298377E+05 -1.152013E+05 -4.900780E+04  1.472207E+04  3.618915E-14 -6.462349E-16
       178  19 -1.198904E+05 -1.185534E+05 -4.768876E+04  1.655490E+04  1.530284E-12 -2.771055E-12
       178  20 -1.206301E+05 -1.187484E+05 -4.787570E+04  1.707357E+04  7.651421E-13 -2.471202E-12
       178  21 -1.212261E+05 -1.191243E+05 -4.807008E+04  1.757758E+04  1.726740E-12 -2.790442E-12
       178  22 -1.224572E+05 -1.177182E+05 -4.803508E+04  1.486677E+04  1.654361E-12 -2.440183E-12
       178  23 -1.236555E+05 -1.171276E+05 -4.815662E+04  1.532462E+04  3.308722E-13 -4.135903E-14
       178  24 -1.247478E+05 -1.166571E+05 -4.828099E+04  1.576763E+04  1.323489E-12 -2.383314E-12
       178  25 -1.264276E+05 -1.177538E+05 -4.883627E+04  1.384603E+04  9.926167E-13 -2.646978E-12
       178  26 -1.281642E+05 -1.164446E+05 -4.892175E+04  1.428973E+04  1.654361E-12 -2.398824E-12
       178  27 -1.298377E+05 -1.152013E+05 -4.900780E+04  1.472207E+04  1.530284E-12 -2.533241E-12
       179   1 -1.211703E+05 -1.189065E+05 -4.801536E+04  1.751040E+04 -2.192029E-12  2.786565E-12
       179   2 -1.207795E+05 -1.181092E+05 -4.777774E+04  1.703029E+04 -1.385528E-12  2.442768E-12
       179   3 -1.203807E+05 -1.174802E+05 -4.757216E+04  1.649950E+04 -1.990403E-12  2.842141E-12
       179   4 -1.252564E+05 -1.162295E+05 -4.829719E+04  1.581810E+04 -1.158053E-12  2.378144E-12
       179   5 -1.251665E+05 -1.150046E+05 -4.803422E+04  1.538142E+04 -3.308722E-13 -1.033976E-14
       179   6 -1.250943E+05 -1.138937E+05 -4.779759E+04  1.489870E+04 -1.716400E-12  2.318691E-12
       179   7 -1.302936E+05 -1.141680E+05 -4.889232E+04  1.459002E+04 -1.654361E-12  2.522901E-12
       179   8 -1.305591E+05 -1.125588E+05 -4.862358E+04  1.423022E+04 -1.819797E-12  2.212708E-12
       179   9 -1.308749E+05 -1.110148E+05 -4.837794E+04  1.383321E+04 -1.240771E-12  2.466032E-12
       179  10 -1.211703E+05 -1.189065E+05 -4.801536E+04  1.751040E+04 -4.135903E-14  0.000000E+00
       179  11 -1.207795E+05 -1.181092E+05 -4.777774E+04  1.703029E+04  0.000000E+00  0.000000E+00
       179  12 -1.203807E+05 -1.174802E+05 -4.757216E+04  1.649950E+04  4.135903E-14 -4.200527E-15
       179  13 -1.252564E+05 -1.162295E+05 -4.829719E+04  1.581810E+04  1.654361E-13  0.000000E+00
       179  14 -1.251665E+05 -1.150046E+05 -4.803422E+04  1.538142E+04 -8.271806E-14  0.000000E+00
       179  15 -1.250943E+05 -1.138937E+05 -4.779759E+04  1.489870E+04  2.067952E-14  1.292470E-15
       179  16 -1.302936E+05 -1.141680E+05 -4.889232E+04  1.459002E+04  4.135903E-14  0.000000E+00
       179  17 -1.305591E+05 -1.125588E+05 -4.862358E+04  1.423022E+04  4.135903E-14 -1.292470E-15
       179  18 -1.308749E+05 -1.110148E+05 -4.837794E+04  1.383321E+04  1.085675E-13  0.000000E+00
       179  19 -1.211703E+05 -1.189065E+05 -4.801536E+04  1.751040E+04  1.861156E-12 -2.796904E-12
       179  20 -1.207795E+05 -1.181092E+05 -4.777774E+04  1.703029E+04  1.054655E-12 -2.442768E-12
       179  21 -1.203807E+05 -1.174802E+05 -4.757216E+04  1.649950E+04  1.990403E-12 -2.800782E-12
       179  22 -1.252564E+05 -1.162295E+05 -4.829719E+04  1.581810E+04  1.158053E-12 -2.378144E-12
       179  23 -1.251665E+05 -1.150046E+05 -4.803422E+04  1.538142E+04  0.000000E+00  1.033976E-14
       179  24 -1.250943E+05 -1.138937E+05 -4.779759E+04  1.489870E+04  1.716400E-12 -2.277332E-12
       179  25 -1.302936E+05 -1.141680E+05 -4.889232E+04  1.459002E+04  1.985233E-12 -2.481542E-12
       179  26 -1.305591E+05 -1.125588E+05 -4.862358E+04  1.423022E+04  1.158053E-12 -2.212708E-12
       179  27 -1.308749E+05 -1.110148E+05 -4.837794E+04  1.383321E+04  1.240771E-12 -2.466032E-12
       180   1 -1.329780E+05 -1.133144E+05 -4.925848E+04  1.437965E+04 -6.203855E-13  2.553920E-12
       180   2 -1.335896E+05 -1.111815E+05 -4.895423E+04  1.399948E+04 -1.116694E-12  2.176519E-12
       180   3 -1.338480E+05 -1.094514E+05 -4.865987E+04  1.349552E+04 -1.214922E-12  2.351002E-12
       180   4 -1.377459E+05 -1.118151E+05 -4.991220E+04  1.496690E+04 -9.926167E-13  2.192029E-12
       180   5 -1.384277E+05 -1.090379E+05 -4.949312E+04  1.427357E+04 -1.075335E-12  2.067952E-14
       180   6 -1.387960E+05 -1.065632E+05 -4.907184E+04  1.346383E+04 -8.065011E-13  1.959384E-12
       180   7 -1.433358E+05 -1.107852E+05 -5.082420E+04  1.590381E+04 -6.617445E-13  2.233388E-12
       180   8 -1.441386E+05 -1.074470E+05 -5.031712E+04  1.494893E+04 -1.654361E-13  1.819797E-12
       180   9 -1.446704E+05 -1.043305E+05 -4.980018E+04  1.389077E+04 -1.571643E-12  2.150670E-12
       180  10 -1.329780E+05 -1.133144E+05 -4.925848E+04  1.437965E+04 -4.135903E-14  0.000000E+00
       180  11 -1.335896E+05 -1.111815E+05 -4.895423E+04  1.399948E+04 -4.135903E-14  0.000000E+00
       180  12 -1.338480E+05 -1.094514E+05 -4.865987E+04  1.349552E+04 -1.033976E-14  1.292470E-15
       180  13 -1.377459E+05 -1.118151E+05 -4.991220E+04  1.496690E+04  0.000000E+00  2.067952E-14
       180  14 -1.384277E+05 -1.090379E+05 -4.949312E+04  1.427357E+04 -8.271806E-14 -1.033976E-14
       180  15 -1.387960E+05 -1.065632E+05 -4.907184E+04  1.346383E+04  1.757759E-13  7.754818E-15
       180  16 -1.433358E+05 -1.107852E+05 -5.082420E+04  1.590381E+04  0.000000E+00  1.033976E-14
       180  17 -1.441386E+05 -1.074470E+05 -5.031712E+04  1.494893E+04  4.135903E-14  2.067952E-14
       180  18 -1.446704E+05 -1.043305E+05 -4.980018E+04  1.389077E+04  1.550964E-14 -3.877409E-15
       180  19 -1.329780E+05 -1.133144E+05 -4.925848E+04  1.437965E+04  1.282130E-12 -2.512561E-12
       180  20 -1.335896E+05 -1.111815E+05 -4.895423E+04  1.399948E+04  7.858216E-13 -2.135160E-12
       180  21 -1.338480E+05 -1.094514E+05 -4.865987E+04  1.349552E+04  8.840493E-13 -2.392361E-12
       180  22 -1.377459E+05 -1.118151E+05 -4.991220E+04  1.496690E+04  9.926167E-13 -2.109311E-12
       180  23 -1.384277E+05 -1.090379E+05 -4.949312E+04  1.427357E+04  4.135903E-13 -2.067952E-14
       180  24 -1.387960E+05 -1.065632E+05 -4.907184E+04  1.346383E+04  8.065011E-13 -1.959384E-12
       180  25 -1.433358E+05 -1.107852E+05 -5.082420E+04  1.590381E+04  6.617445E-13 -2.233388E-12
       180  26 -1.441386E+05 -1.074470E+05 -5.031712E+04  1.494893E+04  1.654361E-13 -1.902515E-12
       180  27 -1.446704E+05 -1.043305E+05 -4.980018E+04  1.389077E+04  9.098987E-13 -2.109311E-12
       181   1 -1.288772E+05 -1.175654E+05 -4.928852E+04  1.400556E+04 -1.613002E-12  2.646978E-12
       181   2 -1.308933E+05 -1.158666E+05 -4.935199E+04  1.428503E+04 -2.481542E-13  2.326445E-12
       181   3 -1.324359E+05 -1.144901E+05 -4.938520E+04  1.452595E+04 -1.483755E-12  2.613374E-12
       181   4 -1.329766E+05 -1.180373E+05 -5.020280E+04  1.514201E+04 -8.271806E-13  2.398824E-12
       181   5 -1.350375E+05 -1.154280E+05 -5.009309E+04  1.509500E+04 -4.135903E-13  1.654361E-13
       181   6 -1.366803E+05 -1.130592E+05 -4.994790E+04  1.499939E+04 -7.444626E-13  2.150670E-12
       181   7 -1.383695E+05 -1.192885E+05 -5.153159E+04  1.687187E+04 -6.617445E-13  2.564260E-12
       181   8 -1.405973E+05 -1.158584E+05 -5.129114E+04  1.656227E+04 -1.654361E-13  2.233388E-12
       181   9 -1.424754E+05 -1.125993E+05 -5.101495E+04  1.620157E+04 -5.790264E-13  2.316106E-12
       181  10 -1.288772E+05 -1.175654E+05 -4.928852E+04  1.400556E+04 -4.135903E-14 -1.033976E-14
       181  11 -1.308933E+05 -1.158666E+05 -4.935199E+04  1.428503E+04  1.240771E-13 -1.033976E-14
       181  12 -1.324359E+05 -1.144901E+05 -4.938520E+04  1.452595E+04 -2.067952E-14  3.877409E-15
       181  13 -1.329766E+05 -1.180373E+05 -5.020280E+04  1.514201E+04 -1.654361E-13  0.000000E+00
       181  14 -1.350375E+05 -1.154280E+05 -5.009309E+04  1.509500E+04  1.654361E-13  4.135903E-14
       181  15 -1.366803E+05 -1.130592E+05 -4.994790E+04  1.499939E+04  4.135903E-14  2.584939E-14
       181  16 -1.383695E+05 -1.192885E+05 -5.153159E+04  1.687187E+04 -4.135903E-14  0.000000E+00
       181  17 -1.405973E+05 -1.158584E+05 -5.129114E+04  1.656227E+04 -2.067952E-14  2.067952E-14
       181  18 -1.424754E+05 -1.125993E+05 -5.101495E+04  1.620157E+04  1.033976E-14  5.169879E-15
       181  19 -1.288772E+05 -1.175654E+05 -4.928852E+04  1.400556E+04  1.943874E-12 -2.564260E-12
       181  20 -1.308933E+05 -1.158666E+05 -4.935199E+04  1.428503E+04  9.098987E-13 -2.243727E-12
       181  21 -1.324359E+05 -1.144901E+05 -4.938520E+04  1.452595E+04  1.483755E-12 -2.613374E-12
       181  22 -1.329766E+05 -1.180373E+05 -5.020280E+04  1.514201E+04  1.488925E-12 -2.233388E-12
       181  23 -1.350375E+05 -1.154280E+05 -5.009309E+04  1.509500E+04  4.135903E-13  0.000000E+00
       181  24 -1.366803E+05 -1.130592E+05 -4.994790E+04  1.499939E+04  7.444626E-13 -2.150670E-12
       181  25 -1.383695E+05 -1.192885E+05 -5.153159E+04  1.687187E+04  6.617445E-13 -2.729696E-12
       181  26 -1.405973E+05 -1.158584E+05 -5.129114E+04  1.656227E+04  1.158053E-12 -2.150670E-12
       181  27 -1.424754E+05 -1.125993E+05 -5.101495E+04  1.620157E+04  5.790264E-13 -2.398824E-12
       182   1 -1.583729E+05 -7.377908E+04 -4.643041E+04  3.657658E+03 -6.720842E-13  1.083090E-12
       182   2 -1.544950E+05 -7.799612E+04 -4.649822E+04  4.246110E+03 -8.426902E-13  1.112816E-12
       182   3 -1.505981E+05 -8.214673E+04 -4.654897E+04  4.876121E+03 -1.101184E-12  1.415577E-12
       182   4 -1.549979E+05 -7.316052E+04 -4.563168E+04  1.517077E+03 -4.963084E-13  9.667673E-13
       182   5 -1.514055E+05 -7.726483E+04 -4.573407E+04  2.249188E+03  1.861156E-13 -5.169879E-15
       182   6 -1.477815E+05 -8.125293E+04 -4.580689E+04  3.008996E+03 -7.651421E-13  1.258865E-12
       182   7 -1.511572E+05 -7.252848E+04 -4.473715E+04 -7.444153E+02 -9.098987E-13  1.096014E-12
       182   8 -1.479086E+05 -7.654058E+04 -4.488984E+04  1.622745E+02 -7.444626E-13  1.137373E-12
       182   9 -1.446150E+05 -8.037790E+04 -4.499859E+04  1.081120E+03 -1.013296E-12  1.419132E-12
       182  10 -1.583729E+05 -7.377908E+04 -4.643041E+04  3.657658E+03  3.101927E-14  0.000000E+00
       182  11 -1.544950E+05 -7.799612E+04 -4.649822E+04  4.246110E+03  4.135903E-14  3.231174E-16
       182  12 -1.505981E+05 -8.214673E+04 -4.654897E+04  4.876121E+03 -1.809458E-14  5.654555E-16
       182  13 -1.549979E+05 -7.316052E+04 -4.563168E+04  1.517077E+03  0.000000E+00 -1.292470E-15
       182  14 -1.514055E+05 -7.726483E+04 -4.573407E+04  2.249188E+03 -6.203855E-14  4.523644E-15
       182  15 -1.477815E+05 -8.125293E+04 -4.580689E+04  3.008996E+03  2.067952E-14 -2.261822E-15
       182  16 -1.511572E+05 -7.252848E+04 -4.473715E+04 -7.444153E+02  1.033976E-14 -2.584939E-15
       182  17 -1.479086E+05 -7.654058E+04 -4.488984E+04  1.622745E+02  0.000000E+00  9.693523E-16
       182  18 -1.446150E+05 -8.037790E+04 -4.499859E+04  1.081120E+03  2.843433E-14  2.665719E-15
       182  19 -1.583729E+05 -7.377908E+04 -4.643041E+04  3.657658E+03  6.720842E-13 -1.083090E-12
       182  20 -1.544950E+05 -7.799612E+04 -4.649822E+04  4.246110E+03  6.772541E-13 -1.107647E-12
       182  21 -1.505981E+05 -8.214673E+04 -4.654897E+04  4.876121E+03  1.101184E-12 -1.415577E-12
       182  22 -1.549979E+05 -7.316052E+04 -4.563168E+04  1.517077E+03  6.617445E-13 -9.719372E-13
       182  23 -1.514055E+05 -7.726483E+04 -4.573407E+04  2.249188E+03  1.447566E-13  5.169879E-15
       182  24 -1.477815E+05 -8.125293E+04 -4.580689E+04  3.008996E+03  7.651421E-13 -1.258865E-12
       182  25 -1.511572E+05 -7.252848E+04 -4.473715E+04 -7.444153E+02  8.271806E-13 -1.096014E-12
       182  26 -1.479086E+05 -7.654058E+04 -4.488984E+04  1.622745E+02  7.444626E-13 -1.127034E-12
       182  27 -1.446150E+05 -8.037790E+04 -4.499859E+04  1.081120E+03  1.178732E-12 -1.439811E-12
       183   1 -1.483177E+05 -8.440221E+04 -4.654398E+04  5.171474E+03 -8.375204E-13  1.500557E-12
       183   2 -1.443220E+05 -8.796642E+04 -4.645768E+04  5.656806E+03 -7.858216E-13  1.491510E-12
       183   3 -1.403760E+05 -9.155147E+04 -4.638549E+04  6.206395E+03 -1.102477E-12  1.768745E-12
       183   4 -1.456656E+05 -8.341318E+04 -4.581575E+04  3.373154E+03 -9.926167E-13  1.292470E-12
       183   5 -1.417565E+05 -8.688269E+04 -4.572783E+04  3.911397E+03 -4.549493E-13 -1.033976E-14
       183   6 -1.379004E+05 -9.037234E+04 -4.565454E+04  4.505991E+03 -1.271790E-12  1.592323E-12
       183   7 -1.426130E+05 -8.248183E+04 -4.501897E+04  1.488754E+03 -8.271806E-13  1.530284E-12
       183   8 -1.388328E+05 -8.588454E+04 -4.494348E+04  2.086859E+03 -1.158053E-12  1.478585E-12
       183   9 -1.351060E+05 -8.930429E+04 -4.488206E+04  2.731593E+03 -1.364848E-12  1.812043E-12
       183  10 -1.483177E+05 -8.440221E+04 -4.654398E+04  5.171474E+03  0.000000E+00  1.292470E-15
       183  11 -1.443220E+05 -8.796642E+04 -4.645768E+04  5.656806E+03 -4.135903E-14  3.877409E-15
       183  12 -1.403760E+05 -9.155147E+04 -4.638549E+04  6.206395E+03  7.754818E-15 -5.654555E-15
       183  13 -1.456656E+05 -8.341318E+04 -4.581575E+04  3.373154E+03  4.135903E-14  2.584939E-15
       183  14 -1.417565E+05 -8.688269E+04 -4.572783E+04  3.911397E+03  6.203855E-14  1.292470E-15
       183  15 -1.379004E+05 -9.037234E+04 -4.565454E+04  4.505991E+03 -3.101927E-14  7.431701E-15
       183  16 -1.426130E+05 -8.248183E+04 -4.501897E+04  1.488754E+03  2.067952E-14  1.292470E-15
       183  17 -1.388328E+05 -8.588454E+04 -4.494348E+04  2.086859E+03 -3.101927E-14 -6.462349E-16
       183  18 -1.351060E+05 -8.930429E+04 -4.488206E+04  2.731593E+03 -1.033976E-14 -1.777146E-15
       183  19 -1.483177E+05 -8.440221E+04 -4.654398E+04  5.171474E+03  8.375204E-13 -1.505727E-12
       183  20 -1.443220E+05 -8.796642E+04 -4.645768E+04  5.656806E+03  1.116694E-12 -1.481170E-12
       183  21 -1.403760E+05 -9.155147E+04 -4.638549E+04  6.206395E+03  1.102477E-12 -1.820444E-12
       183  22 -1.456656E+05 -8.341318E+04 -4.581575E+04  3.373154E+03  9.926167E-13 -1.354508E-12
       183  23 -1.417565E+05 -8.688269E+04 -4.572783E+04  3.911397E+03 -2.067952E-13  3.101927E-14
       183  24 -1.379004E+05 -9.037234E+04 -4.565454E+04  4.505991E+03  9.409179E-13 -1.613002E-12
       183  25 -1.426130E+05 -8.248183E+04 -4.501897E+04  1.488754E+03  8.271806E-13 -1.530284E-12
       183  26 -1.388328E+05 -8.588454E+04 -4.494348E+04  2.086859E+03  1.158053E-12 -1.457906E-12
       183  27 -1.351060E+05 -8.930429E+04 -4.488206E+04  2.731593E+03  1.033976E-12 -1.791363E-12
       184   1 -1.407416E+05 -8.222178E+04 -4.459267E+04  4.776854E+02 -9.409179E-13  1.486340E-12
       184   2 -1.370539E+05 -8.545856E+04 -4.450250E+04  1.056324E+03 -8.220107E-13  1.505727E-12
       184   3 -1.334891E+05 -8.875816E+04 -4.444946E+04  1.729885E+03 -1.472123E-12  1.869234E-12
       184   4 -1.375864E+05 -8.234831E+04 -4.398695E+04 -9.960398E+02 -9.926167E-13  1.385528E-12
       184   5 -1.342400E+05 -8.510591E+04 -4.386919E+04 -4.769582E+02  8.271806E-14 -9.305782E-14
       184   6 -1.309608E+05 -8.785832E+04 -4.376382E+04  8.109884E+01 -1.349338E-12  1.656946E-12
       184   7 -1.338585E+05 -8.249057E+04 -4.326982E+04 -2.612692E+03 -1.240771E-12  1.592323E-12
       184   8 -1.311817E+05 -8.484573E+04 -4.320549E+04 -2.100856E+03 -1.116694E-12  1.540624E-12
       184   9 -1.284340E+05 -8.708026E+04 -4.310285E+04 -1.643236E+03 -1.333829E-12  1.861156E-12
       184  10 -1.407416E+05 -8.222178E+04 -4.459267E+04  4.776854E+02 -1.033976E-14  2.584939E-15
       184  11 -1.370539E+05 -8.545856E+04 -4.450250E+04  1.056324E+03  1.033976E-14  1.292470E-15
       184  12 -1.334891E+05 -8.875816E+04 -4.444946E+04  1.729885E+03  2.067952E-14  1.615587E-15
       184  13 -1.375864E+05 -8.234831E+04 -4.398695E+04 -9.960398E+02  0.000000E+00 -1.033976E-14
       184  14 -1.342400E+05 -8.510591E+04 -4.386919E+04 -4.769582E+02 -4.135903E-14  5.169879E-15
       184  15 -1.309608E+05 -8.785832E+04 -4.376382E+04  8.109884E+01  0.000000E+00 -9.047288E-15
       184  16 -1.338585E+05 -8.249057E+04 -4.326982E+04 -2.612692E+03 -4.135903E-14 -1.033976E-14
       184  17 -1.311817E+05 -8.484573E+04 -4.320549E+04 -2.100856E+03  5.169879E-14 -1.809458E-14
       184  18 -1.284340E+05 -8.708026E+04 -4.310285E+04 -1.643236E+03 -2.067952E-14 -5.816114E-15
       184  19 -1.407416E+05 -8.222178E+04 -4.459267E+04  4.776854E+02  1.437226E-12 -1.486340E-12
       184  20 -1.370539E+05 -8.545856E+04 -4.450250E+04  1.056324E+03  8.220107E-13 -1.485048E-12
       184  21 -1.334891E+05 -8.875816E+04 -4.444946E+04  1.729885E+03  1.141251E-12 -1.786516E-12
       184  22 -1.375864E+05 -8.234831E+04 -4.398695E+04 -9.960398E+02  9.926167E-13 -1.406207E-12
       184  23 -1.342400E+05 -8.510591E+04 -4.386919E+04 -4.769582E+02  8.271806E-14  1.033976E-14
       184  24 -1.309608E+05 -8.785832E+04 -4.376382E+04  8.109884E+01  1.183902E-12 -1.656946E-12
       184  25 -1.338585E+05 -8.249057E+04 -4.326982E+04 -2.612692E+03  1.075335E-12 -1.592323E-12
       184  26 -1.311817E+05 -8.484573E+04 -4.320549E+04 -2.100856E+03  9.512577E-13 -1.499265E-12
       184  27 -1.284340E+05 -8.708026E+04 -4.310285E+04 -1.643236E+03  1.333829E-12 -1.861156E-12
       185   1 -1.485679E+05 -7.240705E+04 -4.419500E+04 -2.083793E+03 -9.202384E-13  1.103769E-12
       185   2 -1.456188E+05 -7.639553E+04 -4.440287E+04 -1.015745E+03 -7.341228E-13  1.115401E-12
       185   3 -1.426283E+05 -8.020038E+04 -4.456573E+04  4.154032E+01 -1.093429E-12  1.462429E-12
       185   4 -1.436921E+05 -7.314807E+04 -4.336803E+04 -4.258939E+03 -6.203855E-13  1.116694E-12
       185   5 -1.414197E+05 -7.700513E+04 -4.368497E+04 -2.872842E+03 -1.033976E-13  3.618915E-14
       185   6 -1.390944E+05 -8.054307E+04 -4.392750E+04 -1.507111E+03 -9.409179E-13  1.375188E-12
       185   7 -1.382839E+05 -7.381455E+04 -4.241968E+04 -6.568645E+03 -8.271806E-13  1.302809E-12
       185   8 -1.367823E+05 -7.755101E+04 -4.286665E+04 -4.796172E+03 -9.098987E-13  1.323489E-12
       185   9 -1.352365E+05 -8.081243E+04 -4.320978E+04 -3.039247E+03 -1.023636E-12  1.509605E-12
       185  10 -1.485679E+05 -7.240705E+04 -4.419500E+04 -2.083793E+03 -3.101927E-14 -2.584939E-15
       185  11 -1.456188E+05 -7.639553E+04 -4.440287E+04 -1.015745E+03  1.550964E-14 -2.584939E-15
       185  12 -1.426283E+05 -8.020038E+04 -4.456573E+04  4.154032E+01 -1.809458E-14 -4.523644E-15
       185  13 -1.436921E+05 -7.314807E+04 -4.336803E+04 -4.258939E+03  4.135903E-14 -1.033976E-14
       185  14 -1.414197E+05 -7.700513E+04 -4.368497E+04 -2.872842E+03  2.067952E-14 -5.169879E-15
       185  15 -1.390944E+05 -8.054307E+04 -4.392750E+04 -1.507111E+03 -6.203855E-14  7.754818E-15
       185  16 -1.382839E+05 -7.381455E+04 -4.241968E+04 -6.568645E+03  0.000000E+00 -2.584939E-15
       185  17 -1.367823E+05 -7.755101E+04 -4.286665E+04 -4.796172E+03 -5.169879E-15  3.877409E-15
       185  18 -1.352365E+05 -8.081243E+04 -4.320978E+04 -3.039247E+03  1.938705E-14  3.231174E-16
       185  19 -1.485679E+05 -7.240705E+04 -4.419500E+04 -2.083793E+03  7.548023E-13 -1.124449E-12
       185  20 -1.456188E+05 -7.639553E+04 -4.440287E+04 -1.015745E+03  8.995589E-13 -1.136081E-12
       185  21 -1.426283E+05 -8.020038E+04 -4.456573E+04  4.154032E+01  7.625571E-13 -1.421070E-12
       185  22 -1.436921E+05 -7.314807E+04 -4.336803E+04 -4.258939E+03  7.031035E-13 -1.054655E-12
       185  23 -1.414197E+05 -7.700513E+04 -4.368497E+04 -2.872842E+03 -6.203855E-14  5.169879E-15
       185  24 -1.390944E+05 -8.054307E+04 -4.392750E+04 -1.507111E+03  9.409179E-13 -1.292470E-12
       185  25 -1.382839E+05 -7.381455E+04 -4.241968E+04 -6.568645E+03  5.790264E-13 -1.261450E-12
       185  26 -1.367823E+05 -7.755101E+04 -4.286665E+04 -4.796172E+03  9.098987E-13 -1.282130E-12
       185  27 -1.352365E+05 -8.081243E+04 -4.320978E+04 -3.039247E+03  1.106354E-12 -1.509605E-12
       186   1 -4.117197E+05 -2.449786E+05 -1.313397E+05  1.542900E+05  1.323489E-12  7.610062E-12
       186   2 -4.187374E+05 -2.479887E+05 -1.333452E+05  1.569654E+05 -1.985233E-12 -5.955700E-12
       186   3 -4.267495E+05 -2.513185E+05 -1.356136E+05  1.599573E+05  1.108422E-11 -5.542110E-12
       186   4 -4.375592E+05 -2.319237E+05 -1.338966E+05  1.605744E+05  6.617445E-12  1.323489E-12
       186   5 -4.414591E+05 -2.361905E+05 -1.355299E+05  1.629016E+05 -2.646978E-12  7.940934E-12
       186   6 -4.458005E+05 -2.409689E+05 -1.373539E+05  1.655170E+05  1.091878E-11 -1.091878E-11
       186   7 -4.641032E+05 -2.194866E+05 -1.367179E+05  1.664498E+05  1.058791E-11  1.058791E-11
       186   8 -4.656675E+05 -2.256948E+05 -1.382725E+05  1.679681E+05  1.191140E-11 -6.617445E-12
       186   9 -4.672269E+05 -2.327319E+05 -1.399918E+05  1.696662E+05  2.316106E-12  5.293956E-12
       186  10 -4.117197E+05 -2.449786E+05 -1.313397E+05  1.542900E+05  0.000000E+00 -6.617445E-13
       186  11 -4.187374E+05 -2.479887E+05 -1.333452E+05  1.569654E+05  3.308722E-13 -1.323489E-12
       186  12 -4.267495E+05 -2.513185E+05 -1.356136E+05  1.599573E+05  4.963084E-13  1.654361E-13
       186  13 -4.375592E+05 -2.319237E+05 -1.338966E+05  1.605744E+05 -1.323489E-12  1.323489E-12
       186  14 -4.414591E+05 -2.361905E+05 -1.355299E+05  1.629016E+05 -6.617445E-13 -1.323489E-12
       186  15 -4.458005E+05 -2.409689E+05 -1.373539E+05  1.655170E+05 -3.308722E-13 -2.150670E-12
       186  16 -4.641032E+05 -2.194866E+05 -1.367179E+05  1.664498E+05 -1.323489E-12 -1.323489E-12
       186  17 -4.656675E+05 -2.256948E+05 -1.382725E+05  1.679681E+05  3.308722E-13  6.617445E-13
       186  18 -4.672269E+05 -2.327319E+05 -1.399918E+05  1.696662E+05 -1.654361E-13  5.790264E-13
       186  19 -4.117197E+05 -2.449786E+05 -1.313397E+05  1.542900E+05  9.264423E-12 -7.610062E-12
       186  20 -4.187374E+05 -2.479887E+05 -1.333452E+05  1.569654E+05  1.985233E-12  5.955700E-12
       186  21 -4.267495E+05 -2.513185E+05 -1.356136E+05  1.599573E+05 -5.790264E-12  1.083607E-11
       186  22 -4.375592E+05 -2.319237E+05 -1.338966E+05  1.605744E+05 -6.617445E-12 -1.323489E-12
       186  23 -4.414591E+05 -2.361905E+05 -1.355299E+05  1.629016E+05  2.646978E-12 -2.646978E-12
       186  24 -4.458005E+05 -2.409689E+05 -1.373539E+05  1.655170E+05 -5.624828E-12  3.308722E-13
       186  25 -4.641032E+05 -2.194866E+05 -1.367179E+05  1.664498E+05  0.000000E+00  0.000000E+00
       186  26 -4.656675E+05 -2.256948E+05 -1.382725E+05  1.679681E+05 -1.191140E-11  1.191140E-11
       186  27 -4.672269E+05 -2.327319E+05 -1.399918E+05  1.696662E+05 -2.316106E-12 -5.293956E-12
       187   1 -4.302271E+05 -2.536326E+05 -1.367719E+05  1.618575E+05  5.624828E-12 -9.595295E-12
       187   2 -4.347253E+05 -2.568681E+05 -1.383187E+05  1.653280E+05 -4.963084E-12  1.422751E-11
       187   3 -4.399526E+05 -2.607765E+05 -1.401458E+05  1.692182E+05 -3.598236E-12 -1.393799E-11
       187   4 -4.487166E+05 -2.446112E+05 -1.386655E+05  1.667350E+05  1.058791E-11 -7.940934E-12
       187   5 -4.518962E+05 -2.489110E+05 -1.401614E+05  1.700897E+05 -1.720536E-11  7.940934E-12
       187   6 -4.557417E+05 -2.539153E+05 -1.419314E+05  1.738557E+05  4.301339E-12 -9.595295E-12
       187   7 -4.679571E+05 -2.362179E+05 -1.408350E+05  1.711727E+05  5.293956E-12 -2.646978E-12
       187   8 -4.699014E+05 -2.416450E+05 -1.423093E+05  1.743653E+05  1.588187E-11 -1.323489E-11
       187   9 -4.724532E+05 -2.478108E+05 -1.440528E+05  1.779587E+05  4.963084E-12  0.000000E+00
       187  10 -4.302271E+05 -2.536326E+05 -1.367719E+05  1.618575E+05  6.617445E-13 -6.617445E-13
       187  11 -4.347253E+05 -2.568681E+05 -1.383187E+05  1.653280E+05  6.617445E-13 -9.926167E-13
       187  12 -4.399526E+05 -2.607765E+05 -1.401458E+05  1.692182E+05  0.000000E+00 -8.271806E-14
       187  13 -4.487166E+05 -2.446112E+05 -1.386655E+05  1.667350E+05  0.000000E+00 -1.323489E-12
       187  14 -4.518962E+05 -2.489110E+05 -1.401614E+05  1.700897E+05  6.617445E-13 -2.646978E-12
       187  15 -4.557417E+05 -2.539153E+05 -1.419314E+05  1.738557E+05 -6.617445E-13  8.271806E-13
       187  16 -4.679571E+05 -2.362179E+05 -1.408350E+05  1.711727E+05 -6.617445E-13 -6.617445E-13
       187  17 -4.699014E+05 -2.416450E+05 -1.423093E+05  1.743653E+05 -9.926167E-13  0.000000E+00
       187  18 -4.724532E+05 -2.478108E+05 -1.440528E+05  1.779587E+05 -1.240771E-12 -8.271806E-14
       187  19 -4.302271E+05 -2.536326E+05 -1.367719E+05  1.618575E+05 -3.308722E-13  9.595295E-12
       187  20 -4.347253E+05 -2.568681E+05 -1.383187E+05  1.653280E+05 -5.624828E-12  1.654361E-12
       187  21 -4.399526E+05 -2.607765E+05 -1.401458E+05  1.692182E+05  8.892192E-12  3.350081E-12
       187  22 -4.487166E+05 -2.446112E+05 -1.386655E+05  1.667350E+05 -5.293956E-12  1.323489E-11
       187  23 -4.518962E+05 -2.489110E+05 -1.401614E+05  1.700897E+05  1.323489E-12  2.646978E-12
       187  24 -4.557417E+05 -2.539153E+05 -1.419314E+05  1.738557E+05 -4.301339E-12 -9.926167E-13
       187  25 -4.679571E+05 -2.362179E+05 -1.408350E+05  1.711727E+05 -5.293956E-12  2.646978E-12
       187  26 -4.699014E+05 -2.416450E+05 -1.423093E+05  1.743653E+05 -1.588187E-11  2.646978E-12
       187  27 -4.724532E+05 -2.478108E+05 -1.440528E+05  1.779587E+05 -4.963084E-12  5.293956E-12
       188   1 -4.793059E+05 -2.307194E+05 -1.420051E+05  1.730446E+05 -3.970467E-12  5.293956E-12
       188   2 -4.803501E+05 -2.368824E+05 -1.434465E+05  1.762036E+05  5.459392E-12 -1.819797E-12
       188   3 -4.821902E+05 -2.436449E+05 -1.451670E+05  1.797913E+05  4.590852E-12 -3.226004E-12
       188   4 -4.977208E+05 -2.227560E+05 -1.440954E+05  1.754853E+05  0.000000E+00  0.000000E+00
       188   5 -4.973479E+05 -2.293034E+05 -1.453303E+05  1.786140E+05  5.293956E-12 -1.323489E-12
       188   6 -4.977622E+05 -2.364803E+05 -1.468485E+05  1.821820E+05 -4.963084E-13 -9.926167E-13
       188   7 -5.166956E+05 -2.150412E+05 -1.463474E+05  1.776654E+05 -2.646978E-12 -5.293956E-12
       188   8 -5.149104E+05 -2.220082E+05 -1.473837E+05  1.807487E+05  7.940934E-12 -9.264423E-12
       188   9 -5.139036E+05 -2.296371E+05 -1.487081E+05  1.842817E+05  1.985233E-12  4.963084E-12
       188  10 -4.793059E+05 -2.307194E+05 -1.420051E+05  1.730446E+05  0.000000E+00 -3.308722E-13
       188  11 -4.803501E+05 -2.368824E+05 -1.434465E+05  1.762036E+05  9.926167E-13 -3.308722E-13
       188  12 -4.821902E+05 -2.436449E+05 -1.451670E+05  1.797913E+05 -6.617445E-13 -3.308722E-13
       188  13 -4.977208E+05 -2.227560E+05 -1.440954E+05  1.754853E+05  1.323489E-12  1.323489E-12
       188  14 -4.973479E+05 -2.293034E+05 -1.453303E+05  1.786140E+05  6.617445E-13 -6.617445E-13
       188  15 -4.977622E+05 -2.364803E+05 -1.468485E+05  1.821820E+05  3.308722E-13  4.963084E-13
       188  16 -5.166956E+05 -2.150412E+05 -1.463474E+05  1.776654E+05 -6.617445E-13  0.000000E+00
       188  17 -5.149104E+05 -2.220082E+05 -1.473837E+05  1.807487E+05 -3.308722E-13 -3.308722E-13
       188  18 -5.139036E+05 -2.296371E+05 -1.487081E+05  1.842817E+05  2.481542E-13 -8.271806E-14
       188  19 -4.793059E+05 -2.307194E+05 -1.420051E+05  1.730446E+05  3.970467E-12 -5.293956E-12
       188  20 -4.803501E+05 -2.368824E+05 -1.434465E+05  1.762036E+05 -5.459392E-12  1.819797E-12
       188  21 -4.821902E+05 -2.436449E+05 -1.451670E+05  1.797913E+05 -4.590852E-12  8.519960E-12
       188  22 -4.977208E+05 -2.227560E+05 -1.440954E+05  1.754853E+05  0.000000E+00  0.000000E+00
       188  23 -4.973479E+05 -2.293034E+05 -1.453303E+05  1.786140E+05  1.058791E-11  1.323489E-12
       188  24 -4.977622E+05 -2.364803E+05 -1.468485E+05  1.821820E+05  4.963084E-13 -4.301339E-12
       188  25 -5.166956E+05 -2.150412E+05 -1.463474E+05  1.776654E+05  2.646978E-12 -2.646978E-12
       188  26 -5.149104E+05 -2.220082E+05 -1.473837E+05  1.807487E+05 -7.940934E-12  3.970467E-12
       188  27 -5.139036E+05 -2.296371E+05 -1.487081E+05  1.842817E+05 -1.985233E-12 -4.963084E-12
       189   1 -4.792178E+05 -2.129963E+05 -1.384428E+05  1.687796E+05  4.301339E-12  6.617445E-12
       189   2 -4.788763E+05 -2.201008E+05 -1.397954E+05  1.698661E+05  6.782881E-12  5.624828E-12
       189   3 -4.793838E+05 -2.273550E+05 -1.413478E+05  1.713638E+05  8.809474E-12 -8.850833E-12
       189   4 -5.034432E+05 -2.034419E+05 -1.413770E+05  1.708631E+05  9.264423E-12  0.000000E+00
       189   5 -5.005908E+05 -2.108525E+05 -1.422887E+05  1.722728E+05 -6.617445E-12  2.646978E-12
       189   6 -4.984192E+05 -2.185224E+05 -1.433883E+05  1.740906E+05  2.977850E-12  3.474159E-12
       189   7 -5.278568E+05 -1.941586E+05 -1.444031E+05  1.728102E+05  7.940934E-12  7.940934E-12
       189   8 -5.227689E+05 -2.021317E+05 -1.449801E+05  1.743836E+05  2.646978E-12  3.970467E-12
       189   9 -5.182201E+05 -2.105100E+05 -1.457460E+05  1.763423E+05  3.639595E-12  5.293956E-12
       189  10 -4.792178E+05 -2.129963E+05 -1.384428E+05  1.687796E+05 -3.308722E-13  9.926167E-13
       189  11 -4.788763E+05 -2.201008E+05 -1.397954E+05  1.698661E+05 -1.158053E-12  4.963084E-13
       189  12 -4.793838E+05 -2.273550E+05 -1.413478E+05  1.713638E+05 -1.282130E-12  8.271806E-14
       189  13 -5.034432E+05 -2.034419E+05 -1.413770E+05  1.708631E+05 -1.323489E-12 -1.323489E-12
       189  14 -5.005908E+05 -2.108525E+05 -1.422887E+05  1.722728E+05  1.323489E-12 -6.617445E-13
       189  15 -4.984192E+05 -2.185224E+05 -1.433883E+05  1.740906E+05 -1.654361E-13  1.654361E-13
       189  16 -5.278568E+05 -1.941586E+05 -1.444031E+05  1.728102E+05 -3.308722E-13 -9.926167E-13
       189  17 -5.227689E+05 -2.021317E+05 -1.449801E+05  1.743836E+05  4.963084E-13 -1.654361E-12
       189  18 -5.182201E+05 -2.105100E+05 -1.457460E+05  1.763423E+05 -1.199412E-12 -4.135903E-14
       189  19 -4.792178E+05 -2.129963E+05 -1.384428E+05  1.687796E+05 -4.301339E-12  3.970467E-12
       189  20 -4.788763E+05 -2.201008E+05 -1.397954E+05  1.698661E+05 -1.488925E-12 -3.308722E-13
       189  21 -4.793838E+05 -2.273550E+05 -1.413478E+05  1.713638E+05 -3.515518E-12  3.556877E-12
       189  22 -5.034432E+05 -2.034419E+05 -1.413770E+05  1.708631E+05  1.323489E-12  2.646978E-12
       189  23 -5.005908E+05 -2.108525E+05 -1.422887E+05  1.722728E+05  1.323489E-12 -2.646978E-12
       189  24 -4.984192E+05 -2.185224E+05 -1.433883E+05  1.740906E+05 -2.977850E-12  1.819797E-12
       189  25 -5.278568E+05 -1.941586E+05 -1.444031E+05  1.728102E+05 -2.646978E-12 -5.293956E-12
       189  26 -5.227689E+05 -2.021317E+05 -1.449801E+05  1.743836E+05 -2.646978E-12 -1.323489E-12
       189  27 -5.182201E+05 -2.105100E+05 -1.457460E+05  1.763423E+05 -3.639595E-12 -5.293956E-12
       190   1 -5.789060E+05 -1.968267E+05 -1.551465E+05  1.834102E+05  9.926167E-13 -3.474159E-12
       190   2 -5.669891E+05 -2.083493E+05 -1.550677E+05  1.891202E+05  4.632211E-12 -2.481542E-12
       190   3 -5.570438E+05 -2.217123E+05 -1.557512E+05  1.960559E+05 -7.403266E-12  6.410650E-13
       190   4 -5.767479E+05 -1.992480E+05 -1.551992E+05  1.834377E+05  9.264423E-12 -4.632211E-12
       190   5 -5.640047E+05 -2.110290E+05 -1.550067E+05  1.893648E+05 -5.955700E-12  2.316106E-12
       190   6 -5.529828E+05 -2.247646E+05 -1.555495E+05  1.965320E+05  4.135903E-12 -2.812414E-12
       190   7 -5.706092E+05 -2.012419E+05 -1.543702E+05  1.833120E+05  0.000000E+00  1.323489E-12
       190   8 -5.570415E+05 -2.134056E+05 -1.540894E+05  1.894797E+05 -6.617445E-12 -3.970467E-12
       190   9 -5.449035E+05 -2.276834E+05 -1.545174E+05  1.969093E+05  3.308722E-12 -6.617445E-12
       190  10 -5.789060E+05 -1.968267E+05 -1.551465E+05  1.834102E+05  3.308722E-13 -3.308722E-13
       190  11 -5.669891E+05 -2.083493E+05 -1.550677E+05  1.891202E+05  1.158053E-12 -1.654361E-13
       190  12 -5.570438E+05 -2.217123E+05 -1.557512E+05  1.960559E+05 -2.481542E-13  3.722313E-13
       190  13 -5.767479E+05 -1.992480E+05 -1.551992E+05  1.834377E+05 -6.617445E-13 -6.617445E-13
       190  14 -5.640047E+05 -2.110290E+05 -1.550067E+05  1.893648E+05  0.000000E+00  0.000000E+00
       190  15 -5.529828E+05 -2.247646E+05 -1.555495E+05  1.965320E+05 -4.135903E-13  4.135903E-13
       190  16 -5.706092E+05 -2.012419E+05 -1.543702E+05  1.833120E+05  3.308722E-13  4.963084E-13
       190  17 -5.570415E+05 -2.134056E+05 -1.540894E+05  1.894797E+05  3.308722E-13 -1.654361E-13
       190  18 -5.449035E+05 -2.276834E+05 -1.545174E+05  1.969093E+05 -2.481542E-13  0.000000E+00
       190  19 -5.789060E+05 -1.968267E+05 -1.551465E+05  1.834102E+05  1.654361E-12  3.474159E-12
       190  20 -5.669891E+05 -2.083493E+05 -1.550677E+05  1.891202E+05 -7.279189E-12  2.481542E-12
       190  21 -5.570438E+05 -2.217123E+05 -1.557512E+05  1.960559E+05  2.109311E-12 -6.410650E-13
       190  22 -5.767479E+05 -1.992480E+05 -1.551992E+05  1.834377E+05 -1.323489E-12  4.632211E-12
       190  23 -5.640047E+05 -2.110290E+05 -1.550067E+05  1.893648E+05  6.617445E-13  2.977850E-12
       190  24 -5.529828E+05 -2.247646E+05 -1.555495E+05  1.965320E+05  1.158053E-12  1.654361E-13
       190  25 -5.706092E+05 -2.012419E+05 -1.543702E+05  1.833120E+05  0.000000E+00  1.323489E-12
       190  26 -5.570415E+05 -2.134056E+05 -1.540894E+05  1.894797E+05  3.970467E-12  1.323489E-12
       190  27 -5.449035E+05 -2.276834E+05 -1.545174E+05  1.969093E+05  4.632211E-12  1.323489E-12
       191   1 -5.508216E+05 -2.299846E+05 -1.561612E+05  2.009847E+05 -1.158053E-11  3.143286E-12
       191   2 -5.403115E+05 -2.439652E+05 -1.568553E+05  2.111561E+05  9.098987E-12 -2.150670E-12
       191   3 -5.319295E+05 -2.593472E+05 -1.582553E+05  2.225262E+05  5.376674E-12  6.824240E-13
       191   4 -5.454888E+05 -2.330893E+05 -1.557156E+05  2.015811E+05  2.646978E-12 -5.293956E-12
       191   5 -5.338467E+05 -2.470178E+05 -1.561729E+05  2.117777E+05  1.985233E-12  4.632211E-12
       191   6 -5.241954E+05 -2.623528E+05 -1.573096E+05  2.231927E+05 -1.323489E-12 -4.135903E-12
       191   7 -5.386932E+05 -2.368144E+05 -1.551015E+05  2.016591E+05  2.646978E-12 -2.646978E-12
       191   8 -5.260007E+05 -2.508372E+05 -1.553676E+05  2.119464E+05  5.293956E-12  0.000000E+00
       191   9 -5.151419E+05 -2.662880E+05 -1.562860E+05  2.234825E+05  0.000000E+00 -1.488925E-12
       191  10 -5.508216E+05 -2.299846E+05 -1.561612E+05  2.009847E+05 -3.308722E-13 -3.308722E-13
       191  11 -5.403115E+05 -2.439652E+05 -1.568553E+05  2.111561E+05 -1.654361E-13 -9.926167E-13
       191  12 -5.319295E+05 -2.593472E+05 -1.582553E+05  2.225262E+05  8.271806E-13 -4.963084E-13
       191  13 -5.454888E+05 -2.330893E+05 -1.557156E+05  2.015811E+05 -1.323489E-12 -6.617445E-13
       191  14 -5.338467E+05 -2.470178E+05 -1.561729E+05  2.117777E+05  6.617445E-13  6.617445E-13
       191  15 -5.241954E+05 -2.623528E+05 -1.573096E+05  2.231927E+05  6.617445E-13 -1.571643E-12
       191  16 -5.386932E+05 -2.368144E+05 -1.551015E+05  2.016591E+05  6.617445E-13 -3.308722E-13
       191  17 -5.260007E+05 -2.508372E+05 -1.553676E+05  2.119464E+05 -1.654361E-13  1.654361E-13
       191  18 -5.151419E+05 -2.662880E+05 -1.562860E+05  2.234825E+05  3.722313E-13 -4.135903E-13
       191  19 -5.508216E+05 -2.299846E+05 -1.561612E+05  2.009847E+05  6.286573E-12 -3.143286E-12
       191  20 -5.403115E+05 -2.439652E+05 -1.568553E+05  2.111561E+05  6.782881E-12 -4.963084E-13
       191  21 -5.319295E+05 -2.593472E+05 -1.582553E+05  2.225262E+05 -5.376674E-12 -6.824240E-13
       191  22 -5.454888E+05 -2.330893E+05 -1.557156E+05  2.015811E+05 -2.646978E-12  2.646978E-12
       191  23 -5.338467E+05 -2.470178E+05 -1.561729E+05  2.117777E+05  3.308722E-12  6.617445E-13
       191  24 -5.241954E+05 -2.623528E+05 -1.573096E+05  2.231927E+05  1.323489E-12  4.135903E-12
       191  25 -5.386932E+05 -2.368144E+05 -1.551015E+05  2.016591E+05  2.646978E-12 -5.293956E-12
       191  26 -5.260007E+05 -2.508372E+05 -1.553676E+05  2.119464E+05  2.646978E-12  5.293956E-12
       191  27 -5.151419E+05 -2.662880E+05 -1.562860E+05  2.234825E+05 -2.646978E-12 -1.158053E-12
       192   1 -5.315633E+05 -2.399113E+05 -1.542949E+05  2.008023E+05 -2.977850E-12  4.135903E-12
       192   2 -5.187794E+05 -2.542213E+05 -1.546002E+05  2.110230E+05 -6.452009E-12  4.963084E-13
       192   3 -5.073820E+05 -2.706743E+05 -1.556113E+05  2.222654E+05 -8.271806E-13  3.598236E-12
       192   4 -5.165035E+05 -2.439095E+05 -1.520826E+05  1.986796E+05  6.617445E-12  3.308722E-12
       192   5 -5.036996E+05 -2.596696E+05 -1.526738E+05  2.079186E+05 -3.970467E-12 -9.926167E-13
       192   6 -4.922596E+05 -2.778470E+05 -1.540213E+05  2.181878E+05  2.812414E-12  1.488925E-12
       192   7 -5.007126E+05 -2.490950E+05 -1.499615E+05  1.952698E+05 -7.940934E-12 -1.323489E-12
       192   8 -4.881282E+05 -2.667534E+05 -1.509763E+05  2.033920E+05 -5.293956E-12  6.617445E-13
       192   9 -4.768946E+05 -2.871882E+05 -1.528166E+05  2.125462E+05 -6.286573E-12  4.963084E-12
       192  10 -5.315633E+05 -2.399113E+05 -1.542949E+05  2.008023E+05  3.308722E-13 -3.308722E-13
       192  11 -5.187794E+05 -2.542213E+05 -1.546002E+05  2.110230E+05 -6.617445E-13 -1.654361E-13
       192  12 -5.073820E+05 -2.706743E+05 -1.556113E+05  2.222654E+05  4.135903E-13  2.895132E-13
       192  13 -5.165035E+05 -2.439095E+05 -1.520826E+05  1.986796E+05  0.000000E+00  6.617445E-13
       192  14 -5.036996E+05 -2.596696E+05 -1.526738E+05  2.079186E+05  0.000000E+00  3.308722E-13
       192  15 -4.922596E+05 -2.778470E+05 -1.540213E+05  2.181878E+05 -2.398824E-12  8.271806E-13
       192  16 -5.007126E+05 -2.490950E+05 -1.499615E+05  1.952698E+05  0.000000E+00 -3.308722E-13
       192  17 -4.881282E+05 -2.667534E+05 -1.509763E+05  2.033920E+05 -1.323489E-12  3.308722E-13
       192  18 -4.768946E+05 -2.871882E+05 -1.528166E+05  2.125462E+05  2.895132E-13  2.895132E-13
       192  19 -5.315633E+05 -2.399113E+05 -1.542949E+05  2.008023E+05  2.977850E-12 -6.782881E-12
       192  20 -5.187794E+05 -2.542213E+05 -1.546002E+05  2.110230E+05  1.158053E-12 -3.143286E-12
       192  21 -5.073820E+05 -2.706743E+05 -1.556113E+05  2.222654E+05  6.121137E-12 -3.598236E-12
       192  22 -5.165035E+05 -2.439095E+05 -1.520826E+05  1.986796E+05 -1.323489E-12  1.985233E-12
       192  23 -5.036996E+05 -2.596696E+05 -1.526738E+05  2.079186E+05  3.970467E-12 -4.301339E-12
       192  24 -4.922596E+05 -2.778470E+05 -1.540213E+05  2.181878E+05 -2.812414E-12 -1.488925E-12
       192  25 -5.007126E+05 -2.490950E+05 -1.499615E+05  1.952698E+05  1.058791E-11 -1.323489E-12
       192  26 -4.881282E+05 -2.667534E+05 -1.509763E+05  2.033920E+05  5.293956E-12 -6.617445E-13
       192  27 -4.768946E+05 -2.871882E+05 -1.528166E+05  2.125462E+05  6.286573E-12  3.308722E-13
       193   1 -5.641771E+05 -2.025719E+05 -1.533498E+05  1.825492E+05 -1.654361E-13  2.646978E-12
       193   2 -5.507163E+05 -2.155523E+05 -1.532537E+05  1.888635E+05 -3.060568E-12  9.926167E-13
       193   3 -5.381988E+05 -2.309489E+05 -1.538295E+05  1.959080E+05 -2.047272E-12 -4.259980E-12
       193   4 -5.498103E+05 -2.047467E+05 -1.509114E+05  1.808002E+05 -1.323489E-12 -1.323489E-12
       193   5 -5.368074E+05 -2.186876E+05 -1.510990E+05  1.866757E+05 -1.985233E-12  1.323489E-12
       193   6 -5.247233E+05 -2.352636E+05 -1.519974E+05  1.932693E+05 -3.722313E-12  1.323489E-12
       193   7 -5.320968E+05 -2.065352E+05 -1.477264E+05  1.787522E+05 -3.970467E-12  1.323489E-12
       193   8 -5.194835E+05 -2.215549E+05 -1.482077E+05  1.841470E+05 -3.308722E-12 -6.617445E-13
       193   9 -5.077537E+05 -2.394687E+05 -1.494445E+05  1.902417E+05 -1.654361E-13  3.308722E-12
       193  10 -5.641771E+05 -2.025719E+05 -1.533498E+05  1.825492E+05  0.000000E+00  1.654361E-13
       193  11 -5.507163E+05 -2.155523E+05 -1.532537E+05  1.888635E+05 -3.308722E-13  3.308722E-13
       193  12 -5.381988E+05 -2.309489E+05 -1.538295E+05  1.959080E+05 -4.963084E-13  2.067952E-14
       193  13 -5.498103E+05 -2.047467E+05 -1.509114E+05  1.808002E+05  0.000000E+00  6.617445E-13
       193  14 -5.368074E+05 -2.186876E+05 -1.510990E+05  1.866757E+05  0.000000E+00 -9.926167E-13
       193  15 -5.247233E+05 -2.352636E+05 -1.519974E+05  1.932693E+05 -3.308722E-13 -3.308722E-13
       193  16 -5.320968E+05 -2.065352E+05 -1.477264E+05  1.787522E+05  0.000000E+00  3.308722E-13
       193  17 -5.194835E+05 -2.215549E+05 -1.482077E+05  1.841470E+05  0.000000E+00 -2.481542E-13
       193  18 -5.077537E+05 -2.394687E+05 -1.494445E+05  1.902417E+05 -8.685396E-13  4.963084E-13
       193  19 -5.641771E+05 -2.025719E+05 -1.533498E+05  1.825492E+05  2.812414E-12 -1.323489E-12
       193  20 -5.507163E+05 -2.155523E+05 -1.532537E+05  1.888635E+05 -2.233388E-12 -9.926167E-13
       193  21 -5.381988E+05 -2.309489E+05 -1.538295E+05  1.959080E+05  2.047272E-12 -3.680954E-12
       193  22 -5.498103E+05 -2.047467E+05 -1.509114E+05  1.808002E+05  1.323489E-12  0.000000E+00
       193  23 -5.368074E+05 -2.186876E+05 -1.510990E+05  1.866757E+05 -3.308722E-12  0.000000E+00
       193  24 -5.247233E+05 -2.352636E+05 -1.519974E+05  1.932693E+05  3.722313E-12 -1.323489E-12
       193  25 -5.320968E+05 -2.065352E+05 -1.477264E+05  1.787522E+05  3.970467E-12 -1.323489E-12
       193  26 -5.194835E+05 -2.215549E+05 -1.482077E+05  1.841470E+05  3.308722E-12 -6.617445E-13
       193  27 -5.077537E+05 -2.394687E+05 -1.494445E+05  1.902417E+05 -5.128520E-12 -6.617445E-13
       194   1 -1.740590E+05 -1.144514E+05 -5.770208E+04  9.340888E+02  2.911676E-11  5.293956E-12
       194   2 -1.762588E+05 -1.141051E+05 -5.807279E+04  3.360434E+03 -1.389663E-11  2.779327E-11
       194   3 -1.779889E+05 -1.134316E+05 -5.828410E+04  6.041033E+03 -1.488925E-12 -6.749794E-11
       194   4 -1.856035E+05 -1.190009E+05 -6.092088E+04  1.296392E+03  1.852885E-11 -2.117582E-11
       194   5 -1.872463E+05 -1.186611E+05 -6.118148E+04  3.936701E+03  2.646978E-12 -1.588187E-11
       194   6 -1.883729E+05 -1.179702E+05 -6.126862E+04  6.855619E+03 -1.323489E-12  1.588187E-11
       194   7 -1.973553E+05 -1.245327E+05 -6.437759E+04  1.849399E+03  1.058791E-11 -2.117582E-11
       194   8 -1.984241E+05 -1.242373E+05 -6.453229E+04  4.710380E+03  2.117582E-11 -1.058791E-11
       194   9 -1.989271E+05 -1.235668E+05 -6.449878E+04  7.876028E+03  1.852885E-11 -1.588187E-11
       194  10 -1.740590E+05 -1.144514E+05 -5.770208E+04  9.340888E+02  0.000000E+00  0.000000E+00
       194  11 -1.762588E+05 -1.141051E+05 -5.807279E+04  3.360434E+03  2.646978E-12 -5.293956E-12
       194  12 -1.779889E+05 -1.134316E+05 -5.828410E+04  6.041033E+03  6.617445E-13 -3.308722E-13
       194  13 -1.856035E+05 -1.190009E+05 -6.092088E+04  1.296392E+03  0.000000E+00  5.293956E-12
       194  14 -1.872463E+05 -1.186611E+05 -6.118148E+04  3.936701E+03  2.646978E-12  5.293956E-12
       194  15 -1.883729E+05 -1.179702E+05 -6.126862E+04  6.855619E+03  3.308722E-13 -6.617445E-13
       194  16 -1.973553E+05 -1.245327E+05 -6.437759E+04  1.849399E+03 -6.617445E-13 -2.646978E-12
       194  17 -1.984241E+05 -1.242373E+05 -6.453229E+04  4.710380E+03 -1.985233E-12 -1.323489E-11
       194  18 -1.989271E+05 -1.235668E+05 -6.449878E+04  7.876028E+03  1.654361E-13 -2.646978E-12
       194  19 -1.740590E+05 -1.144514E+05 -5.770208E+04  9.340888E+02 -7.940934E-12 -5.293956E-12
       194  20 -1.762588E+05 -1.141051E+05 -5.807279E+04  3.360434E+03  1.389663E-11  1.455838E-11
       194  21 -1.779889E+05 -1.134316E+05 -5.828410E+04  6.041033E+03  1.488925E-12  2.514629E-11
       194  22 -1.856035E+05 -1.190009E+05 -6.092088E+04  1.296392E+03  2.646978E-12  4.235165E-11
       194  23 -1.872463E+05 -1.186611E+05 -6.118148E+04  3.936701E+03 -1.323489E-11 -2.646978E-11
       194  24 -1.883729E+05 -1.179702E+05 -6.126862E+04  6.855619E+03 -9.264423E-12  5.293956E-12
       194  25 -1.973553E+05 -1.245327E+05 -6.437759E+04  1.849399E+03  0.000000E+00  0.000000E+00
       194  26 -1.984241E+05 -1.242373E+05 -6.453229E+04  4.710380E+03 -1.058791E-11  5.293956E-11
       194  27 -1.989271E+05 -1.235668E+05 -6.449878E+04  7.876028E+03 -1.852885E-11  5.823352E-11
       195   1 -3.035190E+05 -2.287641E+05 -1.064566E+05  6.675837E+04  5.293956E-12 -2.382280E-11
       195   2 -3.082729E+05 -2.250064E+05 -1.066559E+05  7.536611E+04  6.286573E-12 -1.455838E-11
       195   3 -3.132404E+05 -2.212599E+05 -1.069001E+05  8.396677E+04  7.940934E-12 -1.770167E-11
       195   4 -3.069839E+05 -2.356089E+05 -1.085186E+05  7.023238E+04  7.940934E-12 -1.058791E-11
       195   5 -3.128419E+05 -2.318731E+05 -1.089430E+05  7.972736E+04 -1.191140E-11  0.000000E+00
       195   6 -3.188321E+05 -2.281484E+05 -1.093961E+05  8.922213E+04  1.919059E-11  2.051408E-11
       195   7 -3.103455E+05 -2.428123E+05 -1.106316E+05  7.406048E+04  1.588187E-11 -2.117582E-11
       195   8 -3.172987E+05 -2.391460E+05 -1.112890E+05  8.438551E+04 -2.646978E-12 -5.293956E-12
       195   9 -3.243114E+05 -2.354910E+05 -1.119605E+05  9.471636E+04  9.926167E-12  1.323489E-11
       195  10 -3.035190E+05 -2.287641E+05 -1.064566E+05  6.675837E+04  6.617445E-13 -5.293956E-12
       195  11 -3.082729E+05 -2.250064E+05 -1.066559E+05  7.536611E+04  0.000000E+00 -4.632211E-12
       195  12 -3.132404E+05 -2.212599E+05 -1.069001E+05  8.396677E+04 -5.790264E-13  0.000000E+00
       195  13 -3.069839E+05 -2.356089E+05 -1.085186E+05  7.023238E+04  1.323489E-12  5.293956E-12
       195  14 -3.128419E+05 -2.318731E+05 -1.089430E+05  7.972736E+04 -1.323489E-12  2.646978E-12
       195  15 -3.188321E+05 -2.281484E+05 -1.093961E+05  8.922213E+04  1.488925E-12 -6.617445E-12
       195  16 -3.103455E+05 -2.428123E+05 -1.106316E+05  7.406048E+04 -6.617445E-13  0.000000E+00
       195  17 -3.172987E+05 -2.391460E+05 -1.112890E+05  8.438551E+04 -9.926167E-13 -2.646978E-12
       195  18 -3.243114E+05 -2.354910E+05 -1.119605E+05  9.471636E+04  3.308722E-13 -3.308722E-13
       195  19 -3.035190E+05 -2.287641E+05 -1.064566E+05  6.675837E+04 -1.058791E-11  2.646978E-12
       195  20 -3.082729E+05 -2.250064E+05 -1.066559E+05  7.536611E+04 -9.926167E-13 -6.617445E-12
       195  21 -3.132404E+05 -2.212599E+05 -1.069001E+05  8.396677E+04 -7.940934E-12 -1.406207E-11
       195  22 -3.069839E+05 -2.356089E+05 -1.085186E+05  7.023238E+04 -7.940934E-12  1.058791E-11
       195  23 -3.128419E+05 -2.318731E+05 -1.089430E+05  7.972736E+04  1.191140E-11 -2.117582E-11
       195  24 -3.188321E+05 -2.281484E+05 -1.093961E+05  8.922213E+04 -8.602678E-12  3.242548E-11
       195  25 -3.103455E+05 -2.428123E+05 -1.106316E+05  7.406048E+04 -5.293956E-12  1.058791E-11
       195  26 -3.172987E+05 -2.391460E+05 -1.112890E+05  8.438551E+04 -7.940934E-12  2.646978E-11
       195  27 -3.243114E+05 -2.354910E+05 -1.119605E+05  9.471636E+04 -4.632211E-12  1.852885E-11
       196   1 -3.161747E+05 -2.183995E+05 -1.069148E+05  8.843068E+04 -1.389663E-11  3.970467E-11
       196   2 -3.213345E+05 -2.122553E+05 -1.067180E+05  9.474149E+04 -3.639595E-12 -3.374897E-11
       196   3 -3.263420E+05 -2.058497E+05 -1.064383E+05  1.008780E+05 -3.805031E-12 -3.126743E-11
       196   4 -3.224498E+05 -2.251845E+05 -1.095269E+05  9.406354E+04  5.293956E-12  1.588187E-11
       196   5 -3.287690E+05 -2.189965E+05 -1.095531E+05  1.011090E+05 -9.264423E-12  0.000000E+00
       196   6 -3.349354E+05 -2.125734E+05 -1.095017E+05  1.079965E+05  1.621274E-11  1.124966E-11
       196   7 -3.285693E+05 -2.326917E+05 -1.122522E+05  1.000039E+05  1.588187E-11 -2.117582E-11
       196   8 -3.360298E+05 -2.264946E+05 -1.125049E+05  1.077574E+05  2.117582E-11  0.000000E+00
       196   9 -3.433370E+05 -2.200869E+05 -1.126848E+05  1.153680E+05  1.786710E-11 -7.940934E-12
       196  10 -3.161747E+05 -2.183995E+05 -1.069148E+05  8.843068E+04  1.323489E-12 -1.323489E-12
       196  11 -3.213345E+05 -2.122553E+05 -1.067180E+05  9.474149E+04 -3.308722E-13 -1.323489E-12
       196  12 -3.263420E+05 -2.058497E+05 -1.064383E+05  1.008780E+05  7.444626E-13 -2.481542E-12
       196  13 -3.224498E+05 -2.251845E+05 -1.095269E+05  9.406354E+04  0.000000E+00  5.293956E-12
       196  14 -3.287690E+05 -2.189965E+05 -1.095531E+05  1.011090E+05 -7.940934E-12  5.293956E-12
       196  15 -3.349354E+05 -2.125734E+05 -1.095017E+05  1.079965E+05  0.000000E+00  1.985233E-12
       196  16 -3.285693E+05 -2.326917E+05 -1.122522E+05  1.000039E+05 -1.985233E-12  0.000000E+00
       196  17 -3.360298E+05 -2.264946E+05 -1.125049E+05  1.077574E+05  3.308722E-13  7.279189E-12
       196  18 -3.433370E+05 -2.200869E+05 -1.126848E+05  1.153680E+05  4.135903E-13  2.316106E-12
       196  19 -3.161747E+05 -2.183995E+05 -1.069148E+05  8.843068E+04 -7.279189E-12  2.646978E-12
       196  20 -3.213345E+05 -2.122553E+05 -1.067180E+05  9.474149E+04 -1.753623E-11  3.374897E-11
       196  21 -3.263420E+05 -2.058497E+05 -1.064383E+05  1.008780E+05 -6.782881E-12  1.009160E-11
       196  22 -3.224498E+05 -2.251845E+05 -1.095269E+05  9.406354E+04 -5.293956E-12  1.588187E-11
       196  23 -3.287690E+05 -2.189965E+05 -1.095531E+05  1.011090E+05  9.264423E-12  0.000000E+00
       196  24 -3.349354E+05 -2.125734E+05 -1.095017E+05  1.079965E+05 -1.621274E-11  9.926167E-12
       196  25 -3.285693E+05 -2.326917E+05 -1.122522E+05  1.000039E+05 -1.588187E-11  1.058791E-11
       196  26 -3.360298E+05 -2.264946E+05 -1.125049E+05  1.077574E+05  0.000000E+00  2.117582E-11
       196  27 -3.433370E+05 -2.200869E+05 -1.126848E+05  1.153680E+05 -7.279189E-12  7.940934E-12
       197   1 -3.321855E+05 -2.369837E+05 -1.138338E+05  1.034864E+05 -6.617445E-12  7.940934E-12
       197   2 -3.403209E+05 -2.307930E+05 -1.142228E+05  1.116259E+05  1.058791E-11 -1.455838E-11
       197   3 -3.484830E+05 -2.244944E+05 -1.145955E+05  1.196994E+05  1.116694E-11  3.639595E-12
       197   4 -3.391174E+05 -2.441131E+05 -1.166461E+05  1.095374E+05  0.000000E+00 -5.293956E-12
       197   5 -3.481872E+05 -2.379112E+05 -1.172197E+05  1.182571E+05  5.293956E-12  5.029258E-11
       197   6 -3.573331E+05 -2.316471E+05 -1.177960E+05  1.269461E+05 -5.293956E-12 -5.293956E-12
       197   7 -3.458605E+05 -2.517430E+05 -1.195207E+05  1.158603E+05  1.588187E-11  2.117582E-11
       197   8 -3.558402E+05 -2.455844E+05 -1.202849E+05  1.251559E+05  1.588187E-11  0.000000E+00
       197   9 -3.659416E+05 -2.394087E+05 -1.210701E+05  1.344540E+05 -9.264423E-12  2.646978E-11
       197  10 -3.321855E+05 -2.369837E+05 -1.138338E+05  1.034864E+05 -6.617445E-13 -1.323489E-12
       197  11 -3.403209E+05 -2.307930E+05 -1.142228E+05  1.116259E+05  0.000000E+00 -1.323489E-12
       197  12 -3.484830E+05 -2.244944E+05 -1.145955E+05  1.196994E+05 -1.737079E-12  6.617445E-13
       197  13 -3.391174E+05 -2.441131E+05 -1.166461E+05  1.095374E+05  2.646978E-12  0.000000E+00
       197  14 -3.481872E+05 -2.379112E+05 -1.172197E+05  1.182571E+05  5.293956E-12 -2.646978E-12
       197  15 -3.573331E+05 -2.316471E+05 -1.177960E+05  1.269461E+05  3.308722E-13  2.977850E-12
       197  16 -3.458605E+05 -2.517430E+05 -1.195207E+05  1.158603E+05 -1.323489E-12  1.323489E-12
       197  17 -3.558402E+05 -2.455844E+05 -1.202849E+05  1.251559E+05  3.308722E-13 -5.955700E-12
       197  18 -3.659416E+05 -2.394087E+05 -1.210701E+05  1.344540E+05  2.481542E-13 -6.617445E-13
       197  19 -3.321855E+05 -2.369837E+05 -1.138338E+05  1.034864E+05 -3.970467E-12  2.646978E-12
       197  20 -3.403209E+05 -2.307930E+05 -1.142228E+05  1.116259E+05 -2.117582E-11  3.970467E-12
       197  21 -3.484830E+05 -2.244944E+05 -1.145955E+05  1.196994E+05  2.059680E-11 -3.639595E-12
       197  22 -3.391174E+05 -2.441131E+05 -1.166461E+05  1.095374E+05 -1.058791E-11  1.588187E-11
       197  23 -3.481872E+05 -2.379112E+05 -1.172197E+05  1.182571E+05  5.293956E-12 -7.940934E-12
       197  24 -3.573331E+05 -2.316471E+05 -1.177960E+05  1.269461E+05  5.293956E-12 -1.588187E-11
       197  25 -3.458605E+05 -2.517430E+05 -1.195207E+05  1.158603E+05 -5.293956E-12  0.000000E+00
       197  26 -3.558402E+05 -2.455844E+05 -1.202849E+05  1.251559E+05  0.000000E+00  2.117582E-11
       197  27 -3.659416E+05 -2.394087E+05 -1.210701E+05  1.344540E+05 -1.323489E-12 -5.293956E-12
       198   1 -3.127544E+05 -2.474156E+05 -1.120340E+05  7.632322E+04  3.308722E-12 -5.293956E-12
       198   2 -3.202648E+05 -2.436528E+05 -1.127835E+05  8.716765E+04  7.279189E-12 -1.323489E-12
       198   3 -3.277107E+05 -2.397915E+05 -1.135005E+05  9.792984E+04 -6.038418E-12  1.571643E-11
       198   4 -3.168323E+05 -2.557736E+05 -1.145212E+05  8.047755E+04  5.293956E-12 -5.293956E-12
       198   5 -3.253792E+05 -2.513862E+05 -1.153531E+05  9.195693E+04  0.000000E+00 -1.058791E-11
       198   6 -3.340595E+05 -2.470592E+05 -1.162237E+05  1.034817E+05  8.602678E-12  1.522012E-11
       198   7 -3.206815E+05 -2.639348E+05 -1.169233E+05  8.498614E+04  0.000000E+00  0.000000E+00
       198   8 -3.302433E+05 -2.591806E+05 -1.178848E+05  9.713543E+04  7.940934E-12 -3.176374E-11
       198   9 -3.401085E+05 -2.546551E+05 -1.189527E+05  1.094455E+05  8.602678E-12 -1.985233E-11
       198  10 -3.127544E+05 -2.474156E+05 -1.120340E+05  7.632322E+04  0.000000E+00 -2.646978E-12
       198  11 -3.202648E+05 -2.436528E+05 -1.127835E+05  8.716765E+04 -2.977850E-12  1.985233E-12
       198  12 -3.277107E+05 -2.397915E+05 -1.135005E+05  9.792984E+04 -1.488925E-12  1.985233E-12
       198  13 -3.168323E+05 -2.557736E+05 -1.145212E+05  8.047755E+04  0.000000E+00  0.000000E+00
       198  14 -3.253792E+05 -2.513862E+05 -1.153531E+05  9.195693E+04  1.985233E-12  5.293956E-12
       198  15 -3.340595E+05 -2.470592E+05 -1.162237E+05  1.034817E+05  4.963084E-13 -9.926167E-13
       198  16 -3.206815E+05 -2.639348E+05 -1.169233E+05  8.498614E+04  1.323489E-12 -2.646978E-12
       198  17 -3.302433E+05 -2.591806E+05 -1.178848E+05  9.713543E+04  3.308722E-13  4.632211E-12
       198  18 -3.401085E+05 -2.546551E+05 -1.189527E+05  1.094455E+05  7.444626E-13 -2.316106E-12
       198  19 -3.127544E+05 -2.474156E+05 -1.120340E+05  7.632322E+04 -3.308722E-12  5.293956E-12
       198  20 -3.202648E+05 -2.436528E+05 -1.127835E+05  8.716765E+04 -7.279189E-12  1.323489E-12
       198  21 -3.277107E+05 -2.397915E+05 -1.135005E+05  9.792984E+04 -4.549493E-12  1.604730E-11
       198  22 -3.168323E+05 -2.557736E+05 -1.145212E+05  8.047755E+04 -1.058791E-11  5.293956E-12
       198  23 -3.253792E+05 -2.513862E+05 -1.153531E+05  9.195693E+04 -1.588187E-11 -1.058791E-11
       198  24 -3.340595E+05 -2.470592E+05 -1.162237E+05  1.034817E+05  1.985233E-12 -4.632211E-12
       198  25 -3.206815E+05 -2.639348E+05 -1.169233E+05  8.498614E+04 -1.588187E-11  0.000000E+00
       198  26 -3.302433E+05 -2.591806E+05 -1.178848E+05  9.713543E+04  2.646978E-12  0.000000E+00
       198  27 -3.401085E+05 -2.546551E+05 -1.189527E+05  1.094455E+05 -3.308722E-12 -1.323489E-12
       199   1 -1.289530E+05 -1.044392E+05 -4.667844E+04 -1.301171E+03  2.117582E-11  1.852885E-11
       199   2 -1.314454E+05 -1.045609E+05 -4.720126E+04 -1.504263E+03  2.183757E-11 -9.264423E-12
       199   3 -1.339547E+05 -1.046526E+05 -4.772146E+04 -1.735047E+03 -3.143286E-12 -4.632211E-12
       199   4 -1.237445E+05 -1.039473E+05 -4.553836E+04 -1.158764E+03 -1.588187E-11 -6.352747E-11
       199   5 -1.264448E+05 -1.040284E+05 -4.609463E+04 -1.336692E+03  0.000000E+00 -1.588187E-11
       199   6 -1.291949E+05 -1.040751E+05 -4.665401E+04 -1.538169E+03 -1.257315E-11  2.779327E-11
       199   7 -1.185677E+05 -1.035217E+05 -4.441788E+04 -1.053328E+03 -1.588187E-11 -2.117582E-11
       199   8 -1.214644E+05 -1.035505E+05 -4.500297E+04 -1.191343E+03  5.293956E-12 -2.117582E-11
       199   9 -1.244456E+05 -1.035377E+05 -4.559667E+04 -1.345296E+03 -2.051408E-11 -7.940934E-12
       199  10 -1.289530E+05 -1.044392E+05 -4.667844E+04 -1.301171E+03  0.000000E+00 -2.646978E-12
       199  11 -1.314454E+05 -1.045609E+05 -4.720126E+04 -1.504263E+03 -1.985233E-12  5.293956E-12
       199  12 -1.339547E+05 -1.046526E+05 -4.772146E+04 -1.735047E+03  1.654361E-13 -2.646978E-12
       199  13 -1.237445E+05 -1.039473E+05 -4.553836E+04 -1.158764E+03  0.000000E+00  0.000000E+00
       199  14 -1.264448E+05 -1.040284E+05 -4.609463E+04 -1.336692E+03  2.646978E-12  0.000000E+00
       199  15 -1.291949E+05 -1.040751E+05 -4.665401E+04 -1.538169E+03 -1.985233E-12  2.646978E-12
       199  16 -1.185677E+05 -1.035217E+05 -4.441788E+04 -1.053328E+03 -1.323489E-12  0.000000E+00
       199  17 -1.214644E+05 -1.035505E+05 -4.500297E+04 -1.191343E+03 -4.632211E-12  1.323489E-12
       199  18 -1.244456E+05 -1.035377E+05 -4.559667E+04 -1.345296E+03  1.158053E-12  1.323489E-12
       199  19 -1.289530E+05 -1.044392E+05 -4.667844E+04 -1.301171E+03  0.000000E+00  2.646978E-12
       199  20 -1.314454E+05 -1.045609E+05 -4.720126E+04 -1.504263E+03 -1.124966E-11  9.264423E-12
       199  21 -1.339547E+05 -1.046526E+05 -4.772146E+04 -1.735047E+03 -1.803254E-11  2.580804E-11
       199  22 -1.237445E+05 -1.039473E+05 -4.553836E+04 -1.158764E+03  5.293956E-12  0.000000E+00
       199  23 -1.264448E+05 -1.040284E+05 -4.609463E+04 -1.336692E+03  1.058791E-11  1.588187E-11
       199  24 -1.291949E+05 -1.040751E+05 -4.665401E+04 -1.538169E+03  1.985233E-12  1.455838E-11
       199  25 -1.185677E+05 -1.035217E+05 -4.441788E+04 -1.053328E+03  1.588187E-11  8.470329E-11
       199  26 -1.214644E+05 -1.035505E+05 -4.500297E+04 -1.191343E+03  5.293956E-12  2.117582E-11
       199  27 -1.244456E+05 -1.035377E+05 -4.559667E+04 -1.345296E+03 -1.124966E-11  7.940934E-12
       200   1 -1.353589E+05 -1.046958E+05 -4.801095E+04 -1.798711E+03 -1.588187E-11  3.705769E-11
       200   2 -1.376732E+05 -1.049023E+05 -4.851508E+04 -1.888308E+03  3.308722E-12 -1.588187E-11
       200   3 -1.399124E+05 -1.050475E+05 -4.899198E+04 -2.023070E+03 -1.563371E-11  2.779327E-11
       200   4 -1.307527E+05 -1.041457E+05 -4.697967E+04 -1.606459E+03  0.000000E+00 -4.235165E-11
       200   5 -1.332988E+05 -1.043024E+05 -4.752025E+04 -1.721222E+03 -5.293956E-12  4.235165E-11
       200   6 -1.358087E+05 -1.044094E+05 -4.804363E+04 -1.870040E+03 -1.985233E-12  2.646978E-12
       200   7 -1.261547E+05 -1.036135E+05 -4.595365E+04 -1.435730E+03  0.000000E+00  2.117582E-11
       200   8 -1.289330E+05 -1.037301E+05 -4.653262E+04 -1.561969E+03  0.000000E+00  2.117582E-11
       200   9 -1.317113E+05 -1.038082E+05 -4.710390E+04 -1.710716E+03  6.617445E-12 -5.823352E-11
       200  10 -1.353589E+05 -1.046958E+05 -4.801095E+04 -1.798711E+03  0.000000E+00 -2.646978E-12
       200  11 -1.376732E+05 -1.049023E+05 -4.851508E+04 -1.888308E+03 -1.985233E-12  2.646978E-12
       200  12 -1.399124E+05 -1.050475E+05 -4.899198E+04 -2.023070E+03  2.481542E-12 -4.301339E-12
       200  13 -1.307527E+05 -1.041457E+05 -4.697967E+04 -1.606459E+03  0.000000E+00  0.000000E+00
       200  14 -1.332988E+05 -1.043024E+05 -4.752025E+04 -1.721222E+03 -1.323489E-12  5.293956E-12
       200  15 -1.358087E+05 -1.044094E+05 -4.804363E+04 -1.870040E+03  0.000000E+00  5.293956E-12
       200  16 -1.261547E+05 -1.036135E+05 -4.595365E+04 -1.435730E+03  2.646978E-12  5.293956E-12
       200  17 -1.289330E+05 -1.037301E+05 -4.653262E+04 -1.561969E+03 -1.985233E-12 -2.646978E-12
       200  18 -1.317113E+05 -1.038082E+05 -4.710390E+04 -1.710716E+03  3.308722E-12  3.308722E-12
       200  19 -1.353589E+05 -1.046958E+05 -4.801095E+04 -1.798711E+03 -1.588187E-11  5.293956E-12
       200  20 -1.376732E+05 -1.049023E+05 -4.851508E+04 -1.888308E+03 -1.389663E-11  3.705769E-11
       200  21 -1.399124E+05 -1.050475E+05 -4.899198E+04 -2.023070E+03  5.045802E-12 -6.617445E-12
       200  22 -1.307527E+05 -1.041457E+05 -4.697967E+04 -1.606459E+03  0.000000E+00  4.235165E-11
       200  23 -1.332988E+05 -1.043024E+05 -4.752025E+04 -1.721222E+03 -5.293956E-12  0.000000E+00
       200  24 -1.358087E+05 -1.044094E+05 -4.804363E+04 -1.870040E+03  1.985233E-12 -2.646978E-12
       200  25 -1.261547E+05 -1.036135E+05 -4.595365E+04 -1.435730E+03 -2.117582E-11 -2.117582E-11
       200  26 -1.289330E+05 -1.037301E+05 -4.653262E+04 -1.561969E+03 -1.058791E-11 -2.117582E-11
       200  27 -1.317113E+05 -1.038082E+05 -4.710390E+04 -1.710716E+03 -6.617445E-12  5.823352E-11
       201   1 -1.235030E+05 -1.033533E+05 -4.537125E+04 -1.305555E+03  2.646978E-12  2.911676E-11
       201   2 -1.265662E+05 -1.034407E+05 -4.600138E+04 -1.428890E+03 -3.970467E-12 -2.382280E-11
       201   3 -1.296393E+05 -1.034686E+05 -4.662157E+04 -1.583370E+03  3.722313E-12  6.286573E-12
       201   4 -1.190945E+05 -1.029666E+05 -4.441223E+04 -1.059616E+03  0.000000E+00 -2.117582E-11
       201   5 -1.224418E+05 -1.030342E+05 -4.509519E+04 -1.174057E+03 -1.323489E-11  6.352747E-11
       201   6 -1.258514E+05 -1.030447E+05 -4.577921E+04 -1.303397E+03 -3.308722E-12 -5.293956E-12
       201   7 -1.147123E+05 -1.026480E+05 -4.347206E+04 -8.463540E+02 -5.293956E-12  2.117582E-11
       201   8 -1.183368E+05 -1.026929E+05 -4.420594E+04 -9.334314E+02  1.058791E-11 -5.293956E-11
       201   9 -1.220765E+05 -1.026828E+05 -4.495186E+04 -1.014398E+03 -1.389663E-11 -2.646978E-11
       201  10 -1.235030E+05 -1.033533E+05 -4.537125E+04 -1.305555E+03  0.000000E+00  0.000000E+00
       201  11 -1.265662E+05 -1.034407E+05 -4.600138E+04 -1.428890E+03  3.970467E-12 -6.617445E-12
       201  12 -1.296393E+05 -1.034686E+05 -4.662157E+04 -1.583370E+03 -6.617445E-13  5.624828E-12
       201  13 -1.190945E+05 -1.029666E+05 -4.441223E+04 -1.059616E+03  0.000000E+00  1.058791E-11
       201  14 -1.224418E+05 -1.030342E+05 -4.509519E+04 -1.174057E+03  7.940934E-12  5.293956E-12
       201  15 -1.258514E+05 -1.030447E+05 -4.577921E+04 -1.303397E+03  6.617445E-13  1.323489E-12
       201  16 -1.147123E+05 -1.026480E+05 -4.347206E+04 -8.463540E+02 -1.323489E-12  0.000000E+00
       201  17 -1.183368E+05 -1.026929E+05 -4.420594E+04 -9.334314E+02 -1.985233E-12  3.970467E-12
       201  18 -1.220765E+05 -1.026828E+05 -4.495186E+04 -1.014398E+03 -1.654361E-13  3.308722E-12
       201  19 -1.235030E+05 -1.033533E+05 -4.537125E+04 -1.305555E+03 -2.646978E-12 -2.911676E-11
       201  20 -1.265662E+05 -1.034407E+05 -4.600138E+04 -1.428890E+03 -6.617445E-12 -1.852885E-11
       201  21 -1.296393E+05 -1.034686E+05 -4.662157E+04 -1.583370E+03  6.865599E-12 -2.746240E-11
       201  22 -1.190945E+05 -1.029666E+05 -4.441223E+04 -1.059616E+03  0.000000E+00  4.235165E-11
       201  23 -1.224418E+05 -1.030342E+05 -4.509519E+04 -1.174057E+03  1.323489E-11 -2.117582E-11
       201  24 -1.258514E+05 -1.030447E+05 -4.577921E+04 -1.303397E+03  3.308722E-12  5.293956E-12
       201  25 -1.147123E+05 -1.026480E+05 -4.347206E+04 -8.463540E+02  5.293956E-12 -2.117582E-11
       201  26 -1.183368E+05 -1.026929E+05 -4.420594E+04 -9.334314E+02  0.000000E+00  1.058791E-11
       201  27 -1.220765E+05 -1.026828E+05 -4.495186E+04 -1.014398E+03  3.308722E-12  5.293956E-12
       202   1 -1.152894E+05 -1.033122E+05 -4.372033E+04 -9.745948E+02  5.293956E-12  1.323489E-11
       202   2 -1.184822E+05 -1.033035E+05 -4.435713E+04 -1.118925E+03  1.720536E-11 -3.044025E-11
       202   3 -1.216856E+05 -1.033332E+05 -4.500377E+04 -1.242070E+03 -1.488925E-11  2.051408E-11
       202   4 -1.097530E+05 -1.031258E+05 -4.257575E+04 -6.188807E+02  5.293956E-12 -3.176374E-11
       202   5 -1.133621E+05 -1.030827E+05 -4.328897E+04 -8.329497E+02 -7.940934E-12  5.293956E-12
       202   6 -1.170734E+05 -1.030948E+05 -4.403365E+04 -1.004553E+03  7.279189E-12  1.588187E-11
       202   7 -1.041901E+05 -1.028246E+05 -4.140293E+04 -3.073469E+02  1.588187E-11  0.000000E+00
       202   8 -1.082124E+05 -1.027374E+05 -4.218996E+04 -5.536980E+02 -5.293956E-12  1.058791E-11
       202   9 -1.124192E+05 -1.027192E+05 -4.302768E+04 -7.335535E+02  1.786710E-11  0.000000E+00
       202  10 -1.152894E+05 -1.033122E+05 -4.372033E+04 -9.745948E+02  0.000000E+00  0.000000E+00
       202  11 -1.184822E+05 -1.033035E+05 -4.435713E+04 -1.118925E+03 -1.323489E-12  1.191140E-11
       202  12 -1.216856E+05 -1.033332E+05 -4.500377E+04 -1.242070E+03  2.316106E-12 -9.926167E-13
       202  13 -1.097530E+05 -1.031258E+05 -4.257575E+04 -6.188807E+02  2.646978E-12  1.058791E-11
       202  14 -1.133621E+05 -1.030827E+05 -4.328897E+04 -8.329497E+02 -1.323489E-12  1.588187E-11
       202  15 -1.170734E+05 -1.030948E+05 -4.403365E+04 -1.004553E+03  2.977850E-12  1.455838E-11
       202  16 -1.041901E+05 -1.028246E+05 -4.140293E+04 -3.073469E+02  0.000000E+00  2.646978E-12
       202  17 -1.082124E+05 -1.027374E+05 -4.218996E+04 -5.536980E+02 -6.617445E-13  6.617445E-12
       202  18 -1.124192E+05 -1.027192E+05 -4.302768E+04 -7.335535E+02 -1.654361E-13  6.617445E-13
       202  19 -1.152894E+05 -1.033122E+05 -4.372033E+04 -9.745948E+02  5.293956E-12 -1.323489E-11
       202  20 -1.184822E+05 -1.033035E+05 -4.435713E+04 -1.118925E+03 -6.617445E-12  3.044025E-11
       202  21 -1.216856E+05 -1.033332E+05 -4.500377E+04 -1.242070E+03 -6.286573E-12  4.301339E-11
       202  22 -1.097530E+05 -1.031258E+05 -4.257575E+04 -6.188807E+02 -5.293956E-12 -1.058791E-11
       202  23 -1.133621E+05 -1.030827E+05 -4.328897E+04 -8.329497E+02  7.940934E-12 -5.293956E-12
       202  24 -1.170734E+05 -1.030948E+05 -4.403365E+04 -1.004553E+03 -1.786710E-11  5.293956E-12
       202  25 -1.041901E+05 -1.028246E+05 -4.140293E+04 -3.073469E+02 -5.293956E-12  0.000000E+00
       202  26 -1.082124E+05 -1.027374E+05 -4.218996E+04 -5.536980E+02 -1.588187E-11 -1.058791E-11
       202  27 -1.124192E+05 -1.027192E+05 -4.302768E+04 -7.335535E+02  3.308722E-12  0.000000E+00
       203   1 -1.983446E+05 -2.539445E+05 -9.045783E+04  1.540050E+05  4.963084E-13  1.290402E-11
       203   2 -1.988317E+05 -2.596607E+05 -9.169847E+04  1.565594E+05  7.444626E-13  1.488925E-12
       203   3 -1.965840E+05 -2.634410E+05 -9.200501E+04  1.605501E+05  1.716400E-12 -5.707546E-12
       203   4 -2.176308E+05 -2.688173E+05 -9.728962E+04  1.427296E+05  0.000000E+00 -1.323489E-12
       203   5 -2.099318E+05 -2.741536E+05 -9.681708E+04  1.483721E+05 -5.790264E-13 -3.308722E-12
       203   6 -1.983161E+05 -2.773521E+05 -9.513363E+04  1.558598E+05  1.033976E-12 -1.654361E-13
       203   7 -2.340062E+05 -2.879086E+05 -1.043830E+05  1.312413E+05  6.617445E-13  0.000000E+00
       203   8 -2.177385E+05 -2.937353E+05 -1.022948E+05  1.397454E+05  9.926167E-13  3.970467E-12
       203   9 -1.964476E+05 -2.974099E+05 -9.877150E+04  1.504101E+05  1.592323E-12 -1.985233E-12
       203  10 -1.983446E+05 -2.539445E+05 -9.045783E+04  1.540050E+05 -1.240771E-13  6.617445E-13
       203  11 -1.988317E+05 -2.596607E+05 -9.169847E+04  1.565594E+05  3.308722E-13  1.323489E-12
       203  12 -1.965840E+05 -2.634410E+05 -9.200501E+04  1.605501E+05 -5.686867E-14 -7.444626E-13
       203  13 -2.176308E+05 -2.688173E+05 -9.728962E+04  1.427296E+05  1.654361E-13  0.000000E+00
       203  14 -2.099318E+05 -2.741536E+05 -9.681708E+04  1.483721E+05 -1.654361E-13  6.617445E-13
       203  15 -1.983161E+05 -2.773521E+05 -9.513363E+04  1.558598E+05  2.481542E-13  1.323489E-12
       203  16 -2.340062E+05 -2.879086E+05 -1.043830E+05  1.312413E+05  0.000000E+00 -3.308722E-13
       203  17 -2.177385E+05 -2.937353E+05 -1.022948E+05  1.397454E+05  4.135903E-14  1.819797E-12
       203  18 -1.964476E+05 -2.974099E+05 -9.877150E+04  1.504101E+05 -5.169879E-15  1.654361E-13
       203  19 -1.983446E+05 -2.539445E+05 -9.045783E+04  1.540050E+05 -4.963084E-13  3.308722E-13
       203  20 -1.988317E+05 -2.596607E+05 -9.169847E+04  1.565594E+05 -1.406207E-12  3.805031E-12
       203  21 -1.965840E+05 -2.634410E+05 -9.200501E+04  1.605501E+05 -1.054655E-12  5.707546E-12
       203  22 -2.176308E+05 -2.688173E+05 -9.728962E+04  1.427296E+05  0.000000E+00  1.323489E-12
       203  23 -2.099318E+05 -2.741536E+05 -9.681708E+04  1.483721E+05  5.790264E-13 -1.985233E-12
       203  24 -1.983161E+05 -2.773521E+05 -9.513363E+04  1.558598E+05 -1.033976E-12 -5.128520E-12
       203  25 -2.340062E+05 -2.879086E+05 -1.043830E+05  1.312413E+05 -6.617445E-13  5.293956E-12
       203  26 -2.177385E+05 -2.937353E+05 -1.022948E+05  1.397454E+05 -9.926167E-13  6.617445E-12
       203  27 -1.964476E+05 -2.974099E+05 -9.877150E+04  1.504101E+05 -2.688337E-13 -3.308722E-12
       204   1 -1.921333E+05 -2.694598E+05 -9.231861E+04  1.626430E+05  6.617445E-13 -1.985233E-12
       204   2 -1.947960E+05 -2.651360E+05 -9.198641E+04  1.671852E+05  1.757759E-12 -2.977850E-12
       204   3 -2.001522E+05 -2.613858E+05 -9.230760E+04  1.715425E+05 -1.163223E-12 -5.376674E-13
       204   4 -1.957978E+05 -2.796269E+05 -9.508494E+04  1.618369E+05  1.654361E-13 -2.646978E-12
       204   5 -1.969447E+05 -2.742133E+05 -9.423161E+04  1.687067E+05 -6.617445E-13 -6.617445E-13
       204   6 -2.003362E+05 -2.692082E+05 -9.390888E+04  1.756595E+05  9.098987E-13 -2.481542E-12
       204   7 -1.978301E+05 -2.915817E+05 -9.788235E+04  1.604723E+05  1.985233E-12  2.646978E-12
       204   8 -1.972143E+05 -2.853555E+05 -9.651395E+04  1.695399E+05 -9.926167E-13  0.000000E+00
       204   9 -1.983743E+05 -2.794163E+05 -9.555811E+04  1.789317E+05  7.444626E-13  3.308722E-12
       204  10 -1.921333E+05 -2.694598E+05 -9.231861E+04  1.626430E+05  0.000000E+00 -9.926167E-13
       204  11 -1.947960E+05 -2.651360E+05 -9.198641E+04  1.671852E+05  2.067952E-13  1.323489E-12
       204  12 -2.001522E+05 -2.613858E+05 -9.230760E+04  1.715425E+05  0.000000E+00 -2.895132E-13
       204  13 -1.957978E+05 -2.796269E+05 -9.508494E+04  1.618369E+05 -1.654361E-13  6.617445E-13
       204  14 -1.969447E+05 -2.742133E+05 -9.423161E+04  1.687067E+05 -4.963084E-13  6.617445E-13
       204  15 -2.003362E+05 -2.692082E+05 -9.390888E+04  1.756595E+05 -1.861156E-13 -4.135903E-13
       204  16 -1.978301E+05 -2.915817E+05 -9.788235E+04  1.604723E+05  8.271806E-14 -3.308722E-13
       204  17 -1.972143E+05 -2.853555E+05 -9.651395E+04  1.695399E+05  2.067952E-13  0.000000E+00
       204  18 -1.983743E+05 -2.794163E+05 -9.555811E+04  1.789317E+05  2.067952E-13 -4.549493E-13
       204  19 -1.921333E+05 -2.694598E+05 -9.231861E+04  1.626430E+05  0.000000E+00  1.985233E-12
       204  20 -1.947960E+05 -2.651360E+05 -9.198641E+04  1.671852E+05 -4.342698E-13  2.977850E-12
       204  21 -2.001522E+05 -2.613858E+05 -9.230760E+04  1.715425E+05 -8.220107E-13  5.376674E-13
       204  22 -1.957978E+05 -2.796269E+05 -9.508494E+04  1.618369E+05 -8.271806E-13  0.000000E+00
       204  23 -1.969447E+05 -2.742133E+05 -9.423161E+04  1.687067E+05 -6.617445E-13 -1.985233E-12
       204  24 -2.003362E+05 -2.692082E+05 -9.390888E+04  1.756595E+05 -1.571643E-12  2.481542E-12
       204  25 -1.978301E+05 -2.915817E+05 -9.788235E+04  1.604723E+05 -1.323489E-12 -2.646978E-12
       204  26 -1.972143E+05 -2.853555E+05 -9.651395E+04  1.695399E+05  3.308722E-13  0.000000E+00
       204  27 -1.983743E+05 -2.794163E+05 -9.555811E+04  1.789317E+05 -2.067952E-12 -6.617445E-13
       205   1 -1.994525E+05 -3.037582E+05 -1.006421E+05  1.565527E+05  7.444626E-13  2.977850E-12
       205   2 -1.902489E+05 -2.916658E+05 -9.638295E+04  1.712275E+05  1.323489E-12 -2.812414E-12
       205   3 -1.980061E+05 -2.845797E+05 -9.651718E+04  1.821917E+05  8.271806E-13 -3.101927E-12
       205   4 -1.922638E+05 -3.228523E+05 -1.030232E+05  1.603701E+05  4.135903E-13  0.000000E+00
       205   5 -1.879449E+05 -3.039806E+05 -9.838510E+04  1.778896E+05  4.135903E-13 -6.617445E-13
       205   6 -1.966459E+05 -2.884867E+05 -9.702653E+04  1.927057E+05  2.657318E-12  3.308722E-13
       205   7 -1.849507E+05 -3.395657E+05 -1.049033E+05  1.637867E+05  6.617445E-13  5.293956E-12
       205   8 -1.839635E+05 -3.145061E+05 -9.969392E+04  1.834050E+05  5.790264E-13  5.293956E-12
       205   9 -1.924850E+05 -2.915911E+05 -9.681521E+04  2.010151E+05 -2.481542E-13  6.617445E-12
       205  10 -1.994525E+05 -3.037582E+05 -1.006421E+05  1.565527E+05 -4.135903E-14 -3.308722E-13
       205  11 -1.902489E+05 -2.916658E+05 -9.638295E+04  1.712275E+05  0.000000E+00 -4.963084E-13
       205  12 -1.980061E+05 -2.845797E+05 -9.651718E+04  1.821917E+05 -2.584939E-14  2.895132E-13
       205  13 -1.922638E+05 -3.228523E+05 -1.030232E+05  1.603701E+05  8.271806E-14  6.617445E-13
       205  14 -1.879449E+05 -3.039806E+05 -9.838510E+04  1.778896E+05 -2.067952E-13 -6.617445E-13
       205  15 -1.966459E+05 -2.884867E+05 -9.702653E+04  1.927057E+05  1.447566E-13  7.444626E-13
       205  16 -1.849507E+05 -3.395657E+05 -1.049033E+05  1.637867E+05  4.135903E-14  0.000000E+00
       205  17 -1.839635E+05 -3.145061E+05 -9.969392E+04  1.834050E+05 -4.135903E-14  1.654361E-13
       205  18 -1.924850E+05 -2.915911E+05 -9.681521E+04  2.010151E+05 -1.033976E-14  5.376674E-13
       205  19 -1.994525E+05 -3.037582E+05 -1.006421E+05  1.565527E+05 -7.444626E-13  2.316106E-12
       205  20 -1.902489E+05 -2.916658E+05 -9.638295E+04  1.712275E+05 -6.617445E-13  2.812414E-12
       205  21 -1.980061E+05 -2.845797E+05 -9.651718E+04  1.821917E+05 -1.654361E-13 -2.192029E-12
       205  22 -1.922638E+05 -3.228523E+05 -1.030232E+05  1.603701E+05 -7.444626E-13  2.646978E-12
       205  23 -1.879449E+05 -3.039806E+05 -9.838510E+04  1.778896E+05 -8.271806E-14  5.955700E-12
       205  24 -1.966459E+05 -2.884867E+05 -9.702653E+04  1.927057E+05 -6.720842E-13  4.963084E-12
       205  25 -1.849507E+05 -3.395657E+05 -1.049033E+05  1.637867E+05 -3.308722E-13 -5.293956E-12
       205  26 -1.839635E+05 -3.145061E+05 -9.969392E+04  1.834050E+05  8.271806E-14 -2.646978E-12
       205  27 -1.924850E+05 -2.915911E+05 -9.681521E+04  2.010151E+05 -4.135903E-13 -3.970467E-12
       206   1 -2.541780E+05 -3.075311E+05 -1.123418E+05  1.143435E+05  1.075335E-12  3.308722E-12
       206   2 -2.069615E+05 -3.045953E+05 -1.023114E+05  1.329076E+05  1.261450E-12  3.308722E-13
       206   3 -1.981314E+05 -3.115061E+05 -1.019275E+05  1.487803E+05 -2.584939E-14  3.680954E-12
       206   4 -2.938282E+05 -3.442982E+05 -1.276253E+05  8.202163E+04  6.617445E-13  3.970467E-12
       206   5 -2.378739E+05 -3.358621E+05 -1.147472E+05  1.179499E+05  8.271806E-14  6.617445E-13
       206   6 -2.115289E+05 -3.348637E+05 -1.092785E+05  1.530598E+05  1.654361E-13 -2.316106E-12
       206   7 -3.135703E+05 -3.800804E+05 -1.387301E+05  4.175227E+04  6.617445E-13  0.000000E+00
       206   8 -2.425527E+05 -3.655738E+05 -1.216253E+05  9.172617E+04  4.963084E-13  0.000000E+00
       206   9 -1.920940E+05 -3.562155E+05 -1.096619E+05  1.420334E+05  4.135903E-13  2.646978E-12
       206  10 -2.541780E+05 -3.075311E+05 -1.123418E+05  1.143435E+05 -1.033976E-14  0.000000E+00
       206  11 -2.069615E+05 -3.045953E+05 -1.023114E+05  1.329076E+05  1.163223E-13 -1.654361E-13
       206  12 -1.981314E+05 -3.115061E+05 -1.019275E+05  1.487803E+05 -3.489668E-14  7.031035E-13
       206  13 -2.938282E+05 -3.442982E+05 -1.276253E+05  8.202163E+04 -7.754818E-14  6.617445E-13
       206  14 -2.378739E+05 -3.358621E+05 -1.147472E+05  1.179499E+05  5.169879E-15 -6.617445E-13
       206  15 -2.115289E+05 -3.348637E+05 -1.092785E+05  1.530598E+05 -1.680211E-14  9.926167E-13
       206  16 -3.135703E+05 -3.800804E+05 -1.387301E+05  4.175227E+04 -4.394397E-14 -9.926167E-13
       206  17 -2.425527E+05 -3.655738E+05 -1.216253E+05  9.172617E+04 -4.135903E-14  1.654361E-13
       206  18 -1.920940E+05 -3.562155E+05 -1.096619E+05  1.420334E+05 -4.038968E-14  9.098987E-13
       206  19 -2.541780E+05 -3.075311E+05 -1.123418E+05  1.143435E+05 -1.075335E-12  1.985233E-12
       206  20 -2.069615E+05 -3.045953E+05 -1.023114E+05  1.329076E+05 -9.305782E-13 -2.977850E-12
       206  21 -1.981314E+05 -3.115061E+05 -1.019275E+05  1.487803E+05 -3.050229E-13 -1.033976E-12
       206  22 -2.938282E+05 -3.442982E+05 -1.276253E+05  8.202163E+04 -6.617445E-13 -3.970467E-12
       206  23 -2.378739E+05 -3.358621E+05 -1.147472E+05  1.179499E+05  8.271806E-14 -3.308722E-12
       206  24 -2.115289E+05 -3.348637E+05 -1.092785E+05  1.530598E+05 -4.963084E-13 -3.308722E-13
       206  25 -3.135703E+05 -3.800804E+05 -1.387301E+05  4.175227E+04 -6.617445E-13  0.000000E+00
       206  26 -2.425527E+05 -3.655738E+05 -1.216253E+05  9.172617E+04 -4.963084E-13  0.000000E+00
       206  27 -1.920940E+05 -3.562155E+05 -1.096619E+05  1.420334E+05 -4.135903E-13 -2.646978E-12
       207   1 -2.059553E+05 -1.111232E+05 -6.341570E+04  2.984703E+04  1.191140E-11 -5.029258E-11
       207   2 -2.164744E+05 -1.183190E+05 -6.695868E+04  3.185969E+04  1.124966E-11 -4.632211E-11
       207   3 -2.254917E+05 -1.248012E+05 -7.005858E+04  3.328641E+04 -2.431911E-11 -1.290402E-11
       207   4 -1.953094E+05 -1.093846E+05 -6.093881E+04  2.540005E+04  5.293956E-12 -1.058791E-11
       207   5 -2.062345E+05 -1.159443E+05 -6.443576E+04  2.684851E+04  0.000000E+00  2.646978E-11
       207   6 -2.156798E+05 -1.217665E+05 -6.748926E+04  2.769941E+04 -7.279189E-12 -6.617445E-12
       207   7 -1.846550E+05 -1.074226E+05 -5.841552E+04  2.109743E+04  0.000000E+00 -2.117582E-11
       207   8 -1.959146E+05 -1.132749E+05 -6.183791E+04  2.195555E+04  0.000000E+00  2.117582E-11
       207   9 -2.057413E+05 -1.183800E+05 -6.482426E+04  2.221685E+04  1.323489E-12  2.646978E-12
       207  10 -2.059553E+05 -1.111232E+05 -6.341570E+04  2.984703E+04  1.323489E-12  0.000000E+00
       207  11 -2.164744E+05 -1.183190E+05 -6.695868E+04  3.185969E+04 -1.985233E-12  3.970467E-12
       207  12 -2.254917E+05 -1.248012E+05 -7.005858E+04  3.328641E+04  1.158053E-12  2.316106E-12
       207  13 -1.953094E+05 -1.093846E+05 -6.093881E+04  2.540005E+04  0.000000E+00  1.058791E-11
       207  14 -2.062345E+05 -1.159443E+05 -6.443576E+04  2.684851E+04  2.646978E-12  5.293956E-12
       207  15 -2.156798E+05 -1.217665E+05 -6.748926E+04  2.769941E+04 -1.654361E-12  3.308722E-12
       207  16 -1.846550E+05 -1.074226E+05 -5.841552E+04  2.109743E+04 -1.323489E-12  0.000000E+00
       207  17 -1.959146E+05 -1.132749E+05 -6.183791E+04  2.195555E+04 -3.970467E-12  3.970467E-12
       207  18 -2.057413E+05 -1.183800E+05 -6.482426E+04  2.221685E+04 -4.963084E-13 -9.926167E-13
       207  19 -2.059553E+05 -1.111232E+05 -6.341570E+04  2.984703E+04 -2.249931E-11  7.940934E-12
       207  20 -2.164744E+05 -1.183190E+05 -6.695868E+04  3.185969E+04 -6.617445E-13  2.514629E-11
       207  21 -2.254917E+05 -1.248012E+05 -7.005858E+04  3.328641E+04  3.143286E-12 -8.271806E-12
       207  22 -1.953094E+05 -1.093846E+05 -6.093881E+04  2.540005E+04  5.293956E-12  1.058791E-11
       207  23 -2.062345E+05 -1.159443E+05 -6.443576E+04  2.684851E+04  2.117582E-11 -5.293956E-12
       207  24 -2.156798E+05 -1.217665E+05 -6.748926E+04  2.769941E+04  1.786710E-11 -1.455838E-11
       207  25 -1.846550E+05 -1.074226E+05 -5.841552E+04  2.109743E+04 -1.058791E-11  2.117582E-11
       207  26 -1.959146E+05 -1.132749E+05 -6.183791E+04  2.195555E+04 -1.058791E-11  0.000000E+00
       207  27 -2.057413E+05 -1.183800E+05 -6.482426E+04  2.221685E+04 -1.323489E-12 -2.382280E-11
       208   1 -2.302034E+05 -1.297182E+05 -7.198432E+04  3.398017E+04  0.000000E+00  1.588187E-11
       208   2 -2.379436E+05 -1.380946E+05 -7.520765E+04  3.427708E+04  1.852885E-11 -6.617445E-12
       208   3 -2.447194E+05 -1.456838E+05 -7.808064E+04  3.405582E+04  3.474159E-12 -4.632211E-11
       208   4 -2.207076E+05 -1.259724E+05 -6.933600E+04  2.829390E+04  1.058791E-11 -5.293956E-11
       208   5 -2.293382E+05 -1.339583E+05 -7.265930E+04  2.890959E+04  0.000000E+00 -2.646978E-11
       208   6 -2.370688E+05 -1.411421E+05 -7.564217E+04  2.901698E+04 -5.955700E-12 -3.573420E-11
       208   7 -2.111172E+05 -1.224372E+05 -6.671088E+04  2.282130E+04 -5.293956E-12  2.117582E-11
       208   8 -2.206459E+05 -1.300616E+05 -7.014149E+04  2.378879E+04 -5.293956E-12 -2.117582E-11
       208   9 -2.293444E+05 -1.368719E+05 -7.324326E+04  2.426303E+04  5.293956E-12 -1.323489E-11
       208  10 -2.302034E+05 -1.297182E+05 -7.198432E+04  3.398017E+04  0.000000E+00  2.646978E-12
       208  11 -2.379436E+05 -1.380946E+05 -7.520765E+04  3.427708E+04  2.646978E-12  3.970467E-12
       208  12 -2.447194E+05 -1.456838E+05 -7.808064E+04  3.405582E+04  6.617445E-13  2.646978E-12
       208  13 -2.207076E+05 -1.259724E+05 -6.933600E+04  2.829390E+04  5.293956E-12  5.293956E-12
       208  14 -2.293382E+05 -1.339583E+05 -7.265930E+04  2.890959E+04  2.646978E-12  1.588187E-11
       208  15 -2.370688E+05 -1.411421E+05 -7.564217E+04  2.901698E+04 -9.926167E-13 -5.955700E-12
       208  16 -2.111172E+05 -1.224372E+05 -6.671088E+04  2.282130E+04 -1.323489E-12 -2.646978E-12
       208  17 -2.206459E+05 -1.300616E+05 -7.014149E+04  2.378879E+04  6.617445E-13  1.323489E-12
       208  18 -2.293444E+05 -1.368719E+05 -7.324326E+04  2.426303E+04  9.926167E-13  1.323489E-12
       208  19 -2.302034E+05 -1.297182E+05 -7.198432E+04  3.398017E+04 -2.117582E-11 -1.588187E-11
       208  20 -2.379436E+05 -1.380946E+05 -7.520765E+04  3.427708E+04 -7.940934E-12  2.779327E-11
       208  21 -2.447194E+05 -1.456838E+05 -7.808064E+04  3.405582E+04 -3.474159E-12  6.749794E-11
       208  22 -2.207076E+05 -1.259724E+05 -6.933600E+04  2.829390E+04  0.000000E+00  3.176374E-11
       208  23 -2.293382E+05 -1.339583E+05 -7.265930E+04  2.890959E+04  1.058791E-11 -1.588187E-11
       208  24 -2.370688E+05 -1.411421E+05 -7.564217E+04  2.901698E+04 -1.522012E-11 -6.617445E-12
       208  25 -2.111172E+05 -1.224372E+05 -6.671088E+04  2.282130E+04 -1.588187E-11  0.000000E+00
       208  26 -2.206459E+05 -1.300616E+05 -7.014149E+04  2.378879E+04  5.293956E-12  2.117582E-11
       208  27 -2.293444E+05 -1.368719E+05 -7.324326E+04  2.426303E+04 -5.293956E-12 -7.940934E-12
       209   1 -2.052037E+05 -1.202378E+05 -6.508832E+04  1.944441E+04  1.852885E-11  2.646978E-12
       209   2 -2.147066E+05 -1.270472E+05 -6.835076E+04  2.024559E+04  1.654361E-11 -9.264423E-12
       209   3 -2.238437E+05 -1.338224E+05 -7.153323E+04  2.091559E+04  5.293956E-12  1.389663E-11
       209   4 -1.938039E+05 -1.173646E+05 -6.223371E+04  1.370475E+04  1.588187E-11 -2.117582E-11
       209   5 -2.038015E+05 -1.235599E+05 -6.547227E+04  1.461918E+04  0.000000E+00  0.000000E+00
       209   6 -2.134802E+05 -1.296487E+05 -6.862578E+04  1.538064E+04 -1.323489E-11 -7.543887E-11
       209   7 -1.819920E+05 -1.136093E+05 -5.912025E+04  8.305033E+03  0.000000E+00 -2.117582E-11
       209   8 -1.924324E+05 -1.189984E+05 -6.228616E+04  9.389099E+03  2.117582E-11 -3.176374E-11
       209   9 -2.026002E+05 -1.241614E+05 -6.535232E+04  1.030461E+04  7.279189E-12 -1.058791E-11
       209  10 -2.052037E+05 -1.202378E+05 -6.508832E+04  1.944441E+04  0.000000E+00  0.000000E+00
       209  11 -2.147066E+05 -1.270472E+05 -6.835076E+04  2.024559E+04 -3.970467E-12  7.940934E-12
       209  12 -2.238437E+05 -1.338224E+05 -7.153323E+04  2.091559E+04  9.926167E-13 -6.286573E-12
       209  13 -1.938039E+05 -1.173646E+05 -6.223371E+04  1.370475E+04  2.646978E-12  1.058791E-11
       209  14 -2.038015E+05 -1.235599E+05 -6.547227E+04  1.461918E+04 -2.646978E-12 -1.588187E-11
       209  15 -2.134802E+05 -1.296487E+05 -6.862578E+04  1.538064E+04 -1.654361E-12 -4.632211E-12
       209  16 -1.819920E+05 -1.136093E+05 -5.912025E+04  8.305033E+03  0.000000E+00  0.000000E+00
       209  17 -1.924324E+05 -1.189984E+05 -6.228616E+04  9.389099E+03 -2.646978E-12  1.323489E-11
       209  18 -2.026002E+05 -1.241614E+05 -6.535232E+04  1.030461E+04  8.271806E-13  9.926167E-13
       209  19 -2.052037E+05 -1.202378E+05 -6.508832E+04  1.944441E+04 -1.852885E-11 -2.646978E-12
       209  20 -2.147066E+05 -1.270472E+05 -6.835076E+04  2.024559E+04 -5.955700E-12  3.044025E-11
       209  21 -2.238437E+05 -1.338224E+05 -7.153323E+04  2.091559E+04  5.293956E-12 -1.389663E-11
       209  22 -1.938039E+05 -1.173646E+05 -6.223371E+04  1.370475E+04 -2.646978E-11 -2.117582E-11
       209  23 -2.038015E+05 -1.235599E+05 -6.547227E+04  1.461918E+04  0.000000E+00  0.000000E+00
       209  24 -2.134802E+05 -1.296487E+05 -6.862578E+04  1.538064E+04 -7.940934E-12  3.308722E-11
       209  25 -1.819920E+05 -1.136093E+05 -5.912025E+04  8.305033E+03  0.000000E+00  2.117582E-11
       209  26 -1.924324E+05 -1.189984E+05 -6.228616E+04  9.389099E+03  0.000000E+00 -1.058791E-11
       209  27 -2.026002E+05 -1.241614E+05 -6.535232E+04  1.030461E+04 -1.786710E-11 -1.058791E-11
       210   1 -1.791568E+05 -1.067498E+05 -5.718132E+04  1.893362E+04  2.514629E-11  1.323489E-11
       210   2 -1.898415E+05 -1.119092E+05 -6.035014E+04  1.917216E+04  7.940934E-12  2.514629E-11
       210   3 -1.997542E+05 -1.165559E+05 -6.326203E+04  1.904628E+04  1.588187E-11 -1.124966E-11
       210   4 -1.699300E+05 -1.062760E+05 -5.524119E+04  1.559345E+04 -1.058791E-11 -1.058791E-11
       210   5 -1.793558E+05 -1.103611E+05 -5.794337E+04  1.471450E+04  2.117582E-11 -5.293956E-12
       210   6 -1.883351E+05 -1.142195E+05 -6.051092E+04  1.366458E+04  1.654361E-11  2.249931E-11
       210   7 -1.607022E+05 -1.047052E+05 -5.308147E+04  1.209692E+04 -1.058791E-11  4.235165E-11
       210   8 -1.688335E+05 -1.080374E+05 -5.537419E+04  1.019355E+04  1.588187E-11 -5.293956E-11
       210   9 -1.768444E+05 -1.113637E+05 -5.764161E+04  8.286392E+03  3.970467E-12  2.646978E-11
       210  10 -1.791568E+05 -1.067498E+05 -5.718132E+04  1.893362E+04  1.323489E-12  0.000000E+00
       210  11 -1.898415E+05 -1.119092E+05 -6.035014E+04  1.917216E+04 -3.970467E-12  9.264423E-12
       210  12 -1.997542E+05 -1.165559E+05 -6.326203E+04  1.904628E+04  8.271806E-13  4.632211E-12
       210  13 -1.699300E+05 -1.062760E+05 -5.524119E+04  1.559345E+04  2.646978E-12 -5.293956E-12
       210  14 -1.793558E+05 -1.103611E+05 -5.794337E+04  1.471450E+04 -5.293956E-12  5.293956E-12
       210  15 -1.883351E+05 -1.142195E+05 -6.051092E+04  1.366458E+04  3.308722E-13  6.617445E-13
       210  16 -1.607022E+05 -1.047052E+05 -5.308147E+04  1.209692E+04 -1.323489E-12  0.000000E+00
       210  17 -1.688335E+05 -1.080374E+05 -5.537419E+04  1.019355E+04  3.970467E-12  0.000000E+00
       210  18 -1.768444E+05 -1.113637E+05 -5.764161E+04  8.286392E+03  1.654361E-13  0.000000E+00
       210  19 -1.791568E+05 -1.067498E+05 -5.718132E+04  1.893362E+04 -1.455838E-11 -3.441071E-11
       210  20 -1.898415E+05 -1.119092E+05 -6.035014E+04  1.917216E+04 -7.940934E-12 -4.632211E-11
       210  21 -1.997542E+05 -1.165559E+05 -6.326203E+04  1.904628E+04 -2.646978E-11  1.124966E-11
       210  22 -1.699300E+05 -1.062760E+05 -5.524119E+04  1.559345E+04  0.000000E+00  3.176374E-11
       210  23 -1.793558E+05 -1.103611E+05 -5.794337E+04  1.471450E+04  0.000000E+00  5.293956E-12
       210  24 -1.883351E+05 -1.142195E+05 -6.051092E+04  1.366458E+04 -1.654361E-11 -2.249931E-11
       210  25 -1.607022E+05 -1.047052E+05 -5.308147E+04  1.209692E+04  2.117582E-11 -4.235165E-11
       210  26 -1.688335E+05 -1.080374E+05 -5.537419E+04  1.019355E+04 -5.293956E-12  3.176374E-11
       210  27 -1.768444E+05 -1.113637E+05 -5.764161E+04  8.286392E+03 -3.970467E-12 -5.293956E-12
       211   1 -1.025022E+05 -1.012377E+05 -4.074797E+04  2.677210E+01 -1.058791E-11 -2.911676E-11
       211   2 -1.024423E+05 -1.011761E+05 -4.072369E+04  2.042381E+01 -4.963084E-12 -1.852885E-11
       211   3 -1.025934E+05 -1.011672E+05 -4.075212E+04  5.726389E+01 -3.143286E-12 -3.275635E-11
       211   4 -1.064227E+05 -1.013608E+05 -4.155669E+04  3.940077E+01 -2.646978E-12 -1.058791E-11
       211   5 -1.064467E+05 -1.013773E+05 -4.156478E+04 -1.502103E+01 -5.293956E-12  1.058791E-11
       211   6 -1.066425E+05 -1.014367E+05 -4.161584E+04 -1.654557E+01  2.051408E-11 -6.485096E-11
       211   7 -1.103126E+05 -1.013500E+05 -4.233252E+04  6.218339E+01 -2.117582E-11 -6.352747E-11
       211   8 -1.104257E+05 -1.014591E+05 -4.237696E+04 -5.741981E+01  1.058791E-11 -1.058791E-11
       211   9 -1.106627E+05 -1.015991E+05 -4.245236E+04 -1.121770E+02  6.617445E-12 -2.911676E-11
       211  10 -1.025022E+05 -1.012377E+05 -4.074797E+04  2.677210E+01 -6.617445E-13  0.000000E+00
       211  11 -1.024423E+05 -1.011761E+05 -4.072369E+04  2.042381E+01 -2.646978E-12  6.617445E-12
       211  12 -1.025934E+05 -1.011672E+05 -4.075212E+04  5.726389E+01 -9.926167E-13 -2.646978E-12
       211  13 -1.064227E+05 -1.013608E+05 -4.155669E+04  3.940077E+01  0.000000E+00  0.000000E+00
       211  14 -1.064467E+05 -1.013773E+05 -4.156478E+04 -1.502103E+01  2.646978E-12 -1.588187E-11
       211  15 -1.066425E+05 -1.014367E+05 -4.161584E+04 -1.654557E+01 -3.639595E-12 -3.970467E-12
       211  16 -1.103126E+05 -1.013500E+05 -4.233252E+04  6.218339E+01  6.617445E-13 -5.293956E-12
       211  17 -1.104257E+05 -1.014591E+05 -4.237696E+04 -5.741981E+01  0.000000E+00 -1.455838E-11
       211  18 -1.106627E+05 -1.015991E+05 -4.245236E+04 -1.121770E+02 -2.812414E-12 -4.301339E-12
       211  19 -1.025022E+05 -1.012377E+05 -4.074797E+04  2.677210E+01  1.058791E-11  7.940934E-12
       211  20 -1.024423E+05 -1.011761E+05 -4.072369E+04  2.042381E+01 -5.624828E-12  1.852885E-11
       211  21 -1.025934E+05 -1.011672E+05 -4.075212E+04  5.726389E+01  3.143286E-12  3.275635E-11
       211  22 -1.064227E+05 -1.013608E+05 -4.155669E+04  3.940077E+01 -7.940934E-12  3.176374E-11
       211  23 -1.064467E+05 -1.013773E+05 -4.156478E+04 -1.502103E+01 -5.293956E-12 -1.058791E-11
       211  24 -1.066425E+05 -1.014367E+05 -4.161584E+04 -1.654557E+01  6.617445E-13  2.249931E-11
       211  25 -1.103126E+05 -1.013500E+05 -4.233252E+04  6.218339E+01  1.058791E-11  6.352747E-11
       211  26 -1.104257E+05 -1.014591E+05 -4.237696E+04 -5.741981E+01 -1.058791E-11  3.176374E-11
       211  27 -1.106627E+05 -1.015991E+05 -4.245236E+04 -1.121770E+02  3.970467E-12  2.911676E-11
       212   1 -1.024794E+05 -1.013357E+05 -4.076301E+04 -7.761943E+01 -8.602678E-12 -5.293956E-11
       212   2 -1.025048E+05 -1.019597E+05 -4.089289E+04 -1.344104E+02 -3.308722E-13 -5.293956E-12
       212   3 -1.024783E+05 -1.025708E+05 -4.100983E+04 -2.106706E+02 -1.323489E-12 -6.154224E-11
       212   4 -1.065494E+05 -1.015083E+05 -4.161153E+04 -2.007540E+02 -2.646978E-12 -1.058791E-11
       212   5 -1.067232E+05 -1.020450E+05 -4.175363E+04 -2.814016E+02 -2.646978E-12  2.117582E-11
       212   6 -1.067271E+05 -1.025407E+05 -4.185358E+04 -4.073504E+02  6.617445E-12 -4.102816E-11
       212   7 -1.106945E+05 -1.017264E+05 -4.248419E+04 -2.770680E+02 -5.293956E-12 -2.117582E-11
       212   8 -1.109686E+05 -1.021235E+05 -4.261841E+04 -4.201457E+02  7.940934E-12  0.000000E+00
       212   9 -1.109255E+05 -1.024466E+05 -4.267442E+04 -6.393083E+02  6.617445E-13 -7.940934E-12
       212  10 -1.024794E+05 -1.013357E+05 -4.076301E+04 -7.761943E+01  1.323489E-12 -2.646978E-12
       212  11 -1.025048E+05 -1.019597E+05 -4.089289E+04 -1.344104E+02 -2.646978E-12  2.646978E-12
       212  12 -1.024783E+05 -1.025708E+05 -4.100983E+04 -2.106706E+02 -1.158053E-12 -6.617445E-13
       212  13 -1.065494E+05 -1.015083E+05 -4.161153E+04 -2.007540E+02  0.000000E+00 -1.058791E-11
       212  14 -1.067232E+05 -1.020450E+05 -4.175363E+04 -2.814016E+02 -1.323489E-12  1.588187E-11
       212  15 -1.067271E+05 -1.025407E+05 -4.185358E+04 -4.073504E+02  6.617445E-13 -3.970467E-12
       212  16 -1.106945E+05 -1.017264E+05 -4.248419E+04 -2.770680E+02  1.323489E-12 -2.646978E-12
       212  17 -1.109686E+05 -1.021235E+05 -4.261841E+04 -4.201457E+02 -3.970467E-12  1.323489E-12
       212  18 -1.109255E+05 -1.024466E+05 -4.267442E+04 -6.393083E+02 -1.158053E-12  3.970467E-12
       212  19 -1.024794E+05 -1.013357E+05 -4.076301E+04 -7.761943E+01 -1.257315E-11 -5.293956E-11
       212  20 -1.025048E+05 -1.019597E+05 -4.089289E+04 -1.344104E+02 -1.025704E-11  2.646978E-11
       212  21 -1.024783E+05 -1.025708E+05 -4.100983E+04 -2.106706E+02  1.323489E-12 -1.985233E-12
       212  22 -1.065494E+05 -1.015083E+05 -4.161153E+04 -2.007540E+02  1.323489E-11  1.058791E-11
       212  23 -1.067232E+05 -1.020450E+05 -4.175363E+04 -2.814016E+02  2.646978E-12 -2.117582E-11
       212  24 -1.067271E+05 -1.025407E+05 -4.185358E+04 -4.073504E+02 -6.617445E-12 -1.323489E-12
       212  25 -1.106945E+05 -1.017264E+05 -4.248419E+04 -2.770680E+02 -5.293956E-12 -2.117582E-11
       212  26 -1.109686E+05 -1.021235E+05 -4.261841E+04 -4.201457E+02  2.646978E-12  0.000000E+00
       212  27 -1.109255E+05 -1.024466E+05 -4.267442E+04 -6.393083E+02 -6.617445E-13 -1.323489E-11
       213   1 -1.130759E+05 -1.018254E+05 -4.298024E+04 -3.124579E+02  7.279189E-12 -4.764560E-11
       213   2 -1.132313E+05 -1.021391E+05 -4.307408E+04 -5.350201E+02  7.279189E-12 -4.367514E-11
       213   3 -1.133904E+05 -1.024528E+05 -4.316865E+04 -7.428684E+02  9.760731E-12  3.143286E-11
       213   4 -1.170545E+05 -1.019064E+05 -4.379218E+04 -4.503618E+02 -1.058791E-11 -5.293956E-11
       213   5 -1.171591E+05 -1.022095E+05 -4.387372E+04 -6.439618E+02 -2.646978E-12  3.176374E-11
       213   6 -1.171992E+05 -1.024958E+05 -4.393899E+04 -8.175374E+02  1.919059E-11 -4.764560E-11
       213   7 -1.210672E+05 -1.019781E+05 -4.460906E+04 -5.634347E+02  1.058791E-11 -6.352747E-11
       213   8 -1.211003E+05 -1.022748E+05 -4.467503E+04 -7.477849E+02  7.940934E-12  0.000000E+00
       213   9 -1.209695E+05 -1.025309E+05 -4.470009E+04 -9.056005E+02  1.985233E-12 -2.646978E-12
       213  10 -1.130759E+05 -1.018254E+05 -4.298024E+04 -3.124579E+02 -6.617445E-13  5.293956E-12
       213  11 -1.132313E+05 -1.021391E+05 -4.307408E+04 -5.350201E+02  0.000000E+00 -9.264423E-12
       213  12 -1.133904E+05 -1.024528E+05 -4.316865E+04 -7.428684E+02 -1.654361E-13  3.308722E-13
       213  13 -1.170545E+05 -1.019064E+05 -4.379218E+04 -4.503618E+02 -2.646978E-12 -1.058791E-11
       213  14 -1.171591E+05 -1.022095E+05 -4.387372E+04 -6.439618E+02  0.000000E+00  1.058791E-11
       213  15 -1.171992E+05 -1.024958E+05 -4.393899E+04 -8.175374E+02 -1.654361E-12 -7.940934E-12
       213  16 -1.210672E+05 -1.019781E+05 -4.460906E+04 -5.634347E+02  1.323489E-12  0.000000E+00
       213  17 -1.211003E+05 -1.022748E+05 -4.467503E+04 -7.477849E+02  6.617445E-13  6.617445E-12
       213  18 -1.209695E+05 -1.025309E+05 -4.470009E+04 -9.056005E+02 -5.790264E-13  2.646978E-12
       213  19 -1.130759E+05 -1.018254E+05 -4.298024E+04 -3.124579E+02  3.308722E-12  2.646978E-11
       213  20 -1.132313E+05 -1.021391E+05 -4.307408E+04 -5.350201E+02 -7.279189E-12  2.249931E-11
       213  21 -1.133904E+05 -1.024528E+05 -4.316865E+04 -7.428684E+02  1.141509E-11 -1.025704E-11
       213  22 -1.170545E+05 -1.019064E+05 -4.379218E+04 -4.503618E+02  0.000000E+00  3.176374E-11
       213  23 -1.171591E+05 -1.022095E+05 -4.387372E+04 -6.439618E+02 -7.940934E-12  1.058791E-11
       213  24 -1.171992E+05 -1.024958E+05 -4.393899E+04 -8.175374E+02 -8.602678E-12  4.764560E-11
       213  25 -1.210672E+05 -1.019781E+05 -4.460906E+04 -5.634347E+02  0.000000E+00  2.117582E-11
       213  26 -1.211003E+05 -1.022748E+05 -4.467503E+04 -7.477849E+02 -7.940934E-12  0.000000E+00
       213  27 -1.209695E+05 -1.025309E+05 -4.470009E+04 -9.056005E+02  8.602678E-12 -1.852885E-11
       214   1 -1.124899E+05 -1.013192E+05 -4.276182E+04 -1.138836E+01  8.602678E-12 -5.293956E-12
       214   2 -1.127860E+05 -1.014859E+05 -4.285436E+04 -4.634888E+01 -1.720536E-11 -8.073283E-11
       214   3 -1.130722E+05 -1.016499E+05 -4.294442E+04 -1.123112E+02  5.955700E-12  5.062345E-11
       214   4 -1.162876E+05 -1.013757E+05 -4.353265E+04 -1.178760E+02  5.293956E-12 -4.235165E-11
       214   5 -1.166984E+05 -1.015264E+05 -4.364496E+04 -1.640063E+02 -1.191140E-11 -3.705769E-11
       214   6 -1.170474E+05 -1.016608E+05 -4.374165E+04 -2.460645E+02  3.970467E-12 -3.573420E-11
       214   7 -1.200941E+05 -1.014274E+05 -4.430430E+04 -1.623587E+02  0.000000E+00  6.352747E-11
       214   8 -1.206365E+05 -1.015585E+05 -4.443899E+04 -2.339634E+02 -5.293956E-12 -6.352747E-11
       214   9 -1.210535E+05 -1.016563E+05 -4.454196E+04 -3.479812E+02 -5.955700E-12  1.588187E-11
       214  10 -1.124899E+05 -1.013192E+05 -4.276182E+04 -1.138836E+01 -1.323489E-12  0.000000E+00
       214  11 -1.127860E+05 -1.014859E+05 -4.285436E+04 -4.634888E+01  2.646978E-12  1.323489E-12
       214  12 -1.130722E+05 -1.016499E+05 -4.294442E+04 -1.123112E+02 -1.158053E-12 -1.323489E-12
       214  13 -1.162876E+05 -1.013757E+05 -4.353265E+04 -1.178760E+02  2.646978E-12  0.000000E+00
       214  14 -1.166984E+05 -1.015264E+05 -4.364496E+04 -1.640063E+02  1.323489E-12  1.058791E-11
       214  15 -1.170474E+05 -1.016608E+05 -4.374165E+04 -2.460645E+02 -3.308722E-13  1.323489E-12
       214  16 -1.200941E+05 -1.014274E+05 -4.430430E+04 -1.623587E+02  0.000000E+00  2.646978E-12
       214  17 -1.206365E+05 -1.015585E+05 -4.443899E+04 -2.339634E+02  6.617445E-13  5.293956E-12
       214  18 -1.210535E+05 -1.016563E+05 -4.454196E+04 -3.479812E+02  5.790264E-13  1.985233E-12
       214  19 -1.124899E+05 -1.013192E+05 -4.276182E+04 -1.138836E+01  7.279189E-12 -1.588187E-11
       214  20 -1.127860E+05 -1.014859E+05 -4.285436E+04 -4.634888E+01 -3.970467E-12  1.720536E-11
       214  21 -1.130722E+05 -1.016499E+05 -4.294442E+04 -1.123112E+02 -5.955700E-12 -2.944763E-11
       214  22 -1.162876E+05 -1.013757E+05 -4.353265E+04 -1.178760E+02  5.293956E-12  6.352747E-11
       214  23 -1.166984E+05 -1.015264E+05 -4.364496E+04 -1.640063E+02 -9.264423E-12 -5.293956E-12
       214  24 -1.170474E+05 -1.016608E+05 -4.374165E+04 -2.460645E+02 -3.970467E-12 -6.617445E-12
       214  25 -1.200941E+05 -1.014274E+05 -4.430430E+04 -1.623587E+02  0.000000E+00 -2.117582E-11
       214  26 -1.206365E+05 -1.015585E+05 -4.443899E+04 -2.339634E+02  5.293956E-12  2.117582E-11
       214  27 -1.210535E+05 -1.016563E+05 -4.454196E+04 -3.479812E+02 -4.632211E-12  2.646978E-11
       215   1 -2.193205E+05 -1.316527E+05 -7.019464E+04 -1.504454E+03  1.455838E-11  7.940934E-12
       215   2 -2.051328E+05 -1.257827E+05 -6.618310E+04 -1.657574E+03  1.819797E-11 -5.691003E-11
       215   3 -1.907654E+05 -1.192569E+05 -6.200446E+04 -1.482644E+03  1.133237E-11 -5.293956E-12
       215   4 -2.092441E+05 -1.285563E+05 -6.756009E+04 -7.466981E+02  7.940934E-12  4.235165E-11
       215   5 -1.963424E+05 -1.231850E+05 -6.390549E+04 -1.539790E+03 -2.646978E-12  3.176374E-11
       215   6 -1.833180E+05 -1.172484E+05 -6.011328E+04 -2.349477E+03  1.323489E-12 -2.911676E-11
       215   7 -2.002582E+05 -1.257355E+05 -6.519873E+04  1.632607E+02  1.588187E-11  0.000000E+00
       215   8 -1.891985E+05 -1.209918E+05 -6.203806E+04 -1.190509E+03  2.117582E-11 -1.058791E-11
       215   9 -1.783022E+05 -1.158232E+05 -5.882507E+04 -2.857874E+03  6.617445E-12  2.646978E-12
       215  10 -2.193205E+05 -1.316527E+05 -7.019464E+04 -1.504454E+03  6.617445E-13  0.000000E+00
       215  11 -2.051328E+05 -1.257827E+05 -6.618310E+04 -1.657574E+03  3.308722E-13 -2.646978E-12
       215  12 -1.907654E+05 -1.192569E+05 -6.200446E+04 -1.482644E+03  9.926167E-13  3.970467E-12
       215  13 -2.092441E+05 -1.285563E+05 -6.756009E+04 -7.466981E+02  0.000000E+00 -5.293956E-12
       215  14 -1.963424E+05 -1.231850E+05 -6.390549E+04 -1.539790E+03  1.323489E-12 -2.117582E-11
       215  15 -1.833180E+05 -1.172484E+05 -6.011328E+04 -2.349477E+03  6.617445E-13 -3.308722E-12
       215  16 -2.002582E+05 -1.257355E+05 -6.519873E+04  1.632607E+02  0.000000E+00  0.000000E+00
       215  17 -1.891985E+05 -1.209918E+05 -6.203806E+04 -1.190509E+03  6.617445E-13 -3.970467E-12
       215  18 -1.783022E+05 -1.158232E+05 -5.882507E+04 -2.857874E+03 -1.654361E-13  3.639595E-12
       215  19 -2.193205E+05 -1.316527E+05 -7.019464E+04 -1.504454E+03 -3.970467E-12 -7.940934E-12
       215  20 -2.051328E+05 -1.257827E+05 -6.618310E+04 -1.657574E+03 -1.819797E-11 -6.617445E-12
       215  21 -1.907654E+05 -1.192569E+05 -6.200446E+04 -1.482644E+03 -6.038418E-12 -3.705769E-11
       215  22 -2.092441E+05 -1.285563E+05 -6.756009E+04 -7.466981E+02 -7.940934E-12  0.000000E+00
       215  23 -1.963424E+05 -1.231850E+05 -6.390549E+04 -1.539790E+03  1.323489E-11  1.058791E-11
       215  24 -1.833180E+05 -1.172484E+05 -6.011328E+04 -2.349477E+03 -6.617445E-12 -1.323489E-11
       215  25 -2.002582E+05 -1.257355E+05 -6.519873E+04  1.632607E+02 -5.293956E-12 -4.235165E-11
       215  26 -1.891985E+05 -1.209918E+05 -6.203806E+04 -1.190509E+03  1.058791E-11 -3.176374E-11
       215  27 -1.783022E+05 -1.158232E+05 -5.882507E+04 -2.857874E+03 -6.617445E-12 -2.646978E-12
       216   1 -1.799084E+05 -1.141061E+05 -5.880289E+04 -2.244560E+03  3.970467E-12  2.382280E-11
       216   2 -1.640345E+05 -1.096537E+05 -5.473763E+04 -1.134303E+03  2.646978E-12 -5.426305E-11
       216   3 -1.485804E+05 -1.068802E+05 -5.109212E+04 -1.277584E+02 -2.150670E-12  1.555100E-11
       216   4 -1.758586E+05 -1.133793E+05 -5.784757E+04 -2.657908E+03  7.940934E-12 -4.235165E-11
       216   5 -1.618293E+05 -1.090521E+05 -5.417628E+04 -1.633046E+03  7.940934E-12 -5.293956E-11
       216   6 -1.483878E+05 -1.068070E+05 -5.103896E+04 -1.036049E+03  1.952146E-11 -2.249931E-11
       216   7 -1.713059E+05 -1.125943E+05 -5.678005E+04 -3.077954E+03  0.000000E+00  0.000000E+00
       216   8 -1.594483E+05 -1.084057E+05 -5.357080E+04 -2.148223E+03  1.852885E-11  1.058791E-11
       216   9 -1.485168E+05 -1.068100E+05 -5.106537E+04 -2.056686E+03  8.602678E-12  5.293956E-12
       216  10 -1.799084E+05 -1.141061E+05 -5.880289E+04 -2.244560E+03  1.323489E-12  0.000000E+00
       216  11 -1.640345E+05 -1.096537E+05 -5.473763E+04 -1.134303E+03 -2.646978E-12 -7.940934E-12
       216  12 -1.485804E+05 -1.068802E+05 -5.109212E+04 -1.277584E+02 -1.902515E-12  1.654361E-12
       216  13 -1.758586E+05 -1.133793E+05 -5.784757E+04 -2.657908E+03 -2.646978E-12 -5.293956E-12
       216  14 -1.618293E+05 -1.090521E+05 -5.417628E+04 -1.633046E+03  1.323489E-12 -1.058791E-11
       216  15 -1.483878E+05 -1.068070E+05 -5.103896E+04 -1.036049E+03  0.000000E+00 -1.985233E-12
       216  16 -1.713059E+05 -1.125943E+05 -5.678005E+04 -3.077954E+03 -6.617445E-13  2.646978E-12
       216  17 -1.594483E+05 -1.084057E+05 -5.357080E+04 -2.148223E+03  6.617445E-13 -3.970467E-12
       216  18 -1.485168E+05 -1.068100E+05 -5.106537E+04 -2.056686E+03  9.098987E-13 -9.926167E-13
       216  19 -1.799084E+05 -1.141061E+05 -5.880289E+04 -2.244560E+03  1.323489E-12 -2.382280E-11
       216  20 -1.640345E+05 -1.096537E+05 -5.473763E+04 -1.134303E+03 -7.940934E-12  3.308722E-11
       216  21 -1.485804E+05 -1.068802E+05 -5.109212E+04 -1.277584E+02 -8.437242E-12  5.624828E-12
       216  22 -1.758586E+05 -1.133793E+05 -5.784757E+04 -2.657908E+03 -2.646978E-12  6.352747E-11
       216  23 -1.618293E+05 -1.090521E+05 -5.417628E+04 -1.633046E+03  2.646978E-12 -3.176374E-11
       216  24 -1.483878E+05 -1.068070E+05 -5.103896E+04 -1.036049E+03 -8.933551E-12  1.323489E-12
       216  25 -1.713059E+05 -1.125943E+05 -5.678005E+04 -3.077954E+03  0.000000E+00  2.117582E-11
       216  26 -1.594483E+05 -1.084057E+05 -5.357080E+04 -2.148223E+03 -7.940934E-12 -1.058791E-11
       216  27 -1.485168E+05 -1.068100E+05 -5.106537E+04 -2.056686E+03 -8.602678E-12 -5.293956E-12
       217   1 -1.680742E+05 -1.120752E+05 -5.602988E+04 -2.480632E+03 -5.293956E-12  1.852885E-11
       217   2 -1.579750E+05 -1.091039E+05 -5.341578E+04 -2.556130E+03  1.654361E-12 -3.573420E-11
       217   3 -1.476563E+05 -1.061013E+05 -5.075152E+04 -2.222337E+03  8.271806E-12  6.617445E-12
       217   4 -1.625088E+05 -1.103840E+05 -5.457855E+04 -2.235203E+03  1.852885E-11 -4.235165E-11
       217   5 -1.539905E+05 -1.081491E+05 -5.242792E+04 -2.281855E+03  0.000000E+00  1.588187E-11
       217   6 -1.454434E+05 -1.059066E+05 -5.027000E+04 -2.287527E+03 -8.271806E-12  3.970467E-12
       217   7 -1.562476E+05 -1.083085E+05 -5.291122E+04 -2.304051E+03  5.293956E-12  8.470329E-11
       217   8 -1.499745E+05 -1.070474E+05 -5.140438E+04 -2.097980E+03 -2.646978E-12 -4.235165E-11
       217   9 -1.441312E+05 -1.058751E+05 -5.000125E+04 -2.353469E+03 -2.977850E-11 -2.911676E-11
       217  10 -1.680742E+05 -1.120752E+05 -5.602988E+04 -2.480632E+03  0.000000E+00  2.646978E-12
       217  11 -1.579750E+05 -1.091039E+05 -5.341578E+04 -2.556130E+03  0.000000E+00  1.455838E-11
       217  12 -1.476563E+05 -1.061013E+05 -5.075152E+04 -2.222337E+03 -1.323489E-12 -4.301339E-12
       217  13 -1.625088E+05 -1.103840E+05 -5.457855E+04 -2.235203E+03  2.646978E-12 -5.293956E-12
       217  14 -1.539905E+05 -1.081491E+05 -5.242792E+04 -2.281855E+03 -1.323489E-12  5.293956E-12
       217  15 -1.454434E+05 -1.059066E+05 -5.027000E+04 -2.287527E+03  6.617445E-13  3.970467E-12
       217  16 -1.562476E+05 -1.083085E+05 -5.291122E+04 -2.304051E+03  2.646978E-12  0.000000E+00
       217  17 -1.499745E+05 -1.070474E+05 -5.140438E+04 -2.097980E+03  0.000000E+00  3.970467E-12
       217  18 -1.441312E+05 -1.058751E+05 -5.000125E+04 -2.353469E+03 -3.308722E-13 -2.977850E-12
       217  19 -1.680742E+05 -1.120752E+05 -5.602988E+04 -2.480632E+03 -5.293956E-12  2.382280E-11
       217  20 -1.579750E+05 -1.091039E+05 -5.341578E+04 -2.556130E+03 -1.654361E-12 -6.617445E-12
       217  21 -1.476563E+05 -1.061013E+05 -5.075152E+04 -2.222337E+03 -8.271806E-12 -2.779327E-11
       217  22 -1.625088E+05 -1.103840E+05 -5.457855E+04 -2.235203E+03  2.646978E-12 -2.117582E-11
       217  23 -1.539905E+05 -1.081491E+05 -5.242792E+04 -2.281855E+03  0.000000E+00 -1.588187E-11
       217  24 -1.454434E+05 -1.059066E+05 -5.027000E+04 -2.287527E+03  8.271806E-12 -3.970467E-12
       217  25 -1.562476E+05 -1.083085E+05 -5.291122E+04 -2.304051E+03 -5.293956E-12 -2.117582E-11
       217  26 -1.499745E+05 -1.070474E+05 -5.140438E+04 -2.097980E+03  1.323489E-11  0.000000E+00
       217  27 -1.441312E+05 -1.058751E+05 -5.000125E+04 -2.353469E+03 -1.985233E-12 -1.323489E-11
       218   1 -1.944655E+05 -1.229370E+05 -6.348051E+04  5.389351E+02  9.264423E-12 -5.293956E-12
       218   2 -1.847716E+05 -1.187309E+05 -6.070050E+04 -1.363928E+03 -1.919059E-11 -7.940934E-12
       218   3 -1.742561E+05 -1.138026E+05 -5.761173E+04 -2.493213E+03 -1.488925E-12 -6.948317E-12
       218   4 -1.832406E+05 -1.182995E+05 -6.030801E+04  2.788884E+02  1.588187E-11 -8.470329E-11
       218   5 -1.752856E+05 -1.154182E+05 -5.814077E+04 -1.475923E+03 -5.293956E-12 -2.117582E-11
       218   6 -1.666602E+05 -1.111873E+05 -5.556950E+04 -2.728390E+03  5.293956E-12 -5.293956E-11
       218   7 -1.714729E+05 -1.132506E+05 -5.694469E+04 -3.420006E+02  0.000000E+00 -2.117582E-11
       218   8 -1.659291E+05 -1.124649E+05 -5.567880E+04 -1.473570E+03  3.176374E-11 -1.058791E-11
       218   9 -1.602132E+05 -1.098879E+05 -5.402021E+04 -2.228870E+03  1.985233E-11  2.117582E-11
       218  10 -1.944655E+05 -1.229370E+05 -6.348051E+04  5.389351E+02 -1.323489E-12  0.000000E+00
       218  11 -1.847716E+05 -1.187309E+05 -6.070050E+04 -1.363928E+03 -6.617445E-13  0.000000E+00
       218  12 -1.742561E+05 -1.138026E+05 -5.761173E+04 -2.493213E+03 -4.963084E-13  1.323489E-12
       218  13 -1.832406E+05 -1.182995E+05 -6.030801E+04  2.788884E+02  0.000000E+00 -1.058791E-11
       218  14 -1.752856E+05 -1.154182E+05 -5.814077E+04 -1.475923E+03  2.646978E-12  0.000000E+00
       218  15 -1.666602E+05 -1.111873E+05 -5.556950E+04 -2.728390E+03  3.308722E-13 -3.970467E-12
       218  16 -1.714729E+05 -1.132506E+05 -5.694469E+04 -3.420006E+02  0.000000E+00  2.646978E-12
       218  17 -1.659291E+05 -1.124649E+05 -5.567880E+04 -1.473570E+03  6.617445E-13  2.646978E-12
       218  18 -1.602132E+05 -1.098879E+05 -5.402021E+04 -2.228870E+03  2.150670E-12  5.293956E-12
       218  19 -1.944655E+05 -1.229370E+05 -6.348051E+04  5.389351E+02 -1.985233E-11 -1.588187E-11
       218  20 -1.847716E+05 -1.187309E+05 -6.070050E+04 -1.363928E+03  8.602678E-12  7.940934E-12
       218  21 -1.742561E+05 -1.138026E+05 -5.761173E+04 -2.493213E+03 -9.098987E-12 -1.422751E-11
       218  22 -1.832406E+05 -1.182995E+05 -6.030801E+04  2.788884E+02  5.293956E-12 -2.117582E-11
       218  23 -1.752856E+05 -1.154182E+05 -5.814077E+04 -1.475923E+03  5.293956E-12 -2.117582E-11
       218  24 -1.666602E+05 -1.111873E+05 -5.556950E+04 -2.728390E+03 -5.293956E-12 -1.058791E-11
       218  25 -1.714729E+05 -1.132506E+05 -5.694469E+04 -3.420006E+02  0.000000E+00  2.117582E-11
       218  26 -1.659291E+05 -1.124649E+05 -5.567880E+04 -1.473570E+03 -1.058791E-11  3.176374E-11
       218  27 -1.602132E+05 -1.098879E+05 -5.402021E+04 -2.228870E+03 -9.264423E-12 -2.117582E-11
       219   1 -1.132361E+05 -9.113851E+04 -4.087492E+04 -5.565789E+03 -1.711230E-12  2.073121E-12
       219   2 -1.093448E+05 -9.370242E+04 -4.060944E+04 -4.753426E+03 -1.680211E-12  2.042102E-12
       219   3 -1.063729E+05 -9.656260E+04 -4.058710E+04 -3.706694E+03 -2.009144E-12  2.320629E-12
       219   4 -1.125405E+05 -8.973990E+04 -4.045608E+04 -7.487093E+03 -1.571643E-12  1.964554E-12
       219   5 -1.086154E+05 -9.274045E+04 -4.027118E+04 -6.301419E+03  8.271806E-14  7.237830E-14
       219   6 -1.056379E+05 -9.608290E+04 -4.034416E+04 -4.837810E+03 -1.855986E-12  2.057612E-12
       219   7 -1.118013E+05 -8.848249E+04 -4.005676E+04 -9.393564E+03 -1.488925E-12  1.943874E-12
       219   8 -1.078364E+05 -9.196956E+04 -3.996120E+04 -7.834097E+03 -1.530284E-12  1.881836E-12
       219   9 -1.048465E+05 -9.585198E+04 -4.013970E+04 -5.952749E+03 -2.026593E-12  2.455692E-12
       219  10 -1.132361E+05 -9.113851E+04 -4.087492E+04 -5.565789E+03  0.000000E+00 -1.033976E-14
       219  11 -1.093448E+05 -9.370242E+04 -4.060944E+04 -4.753426E+03  1.550964E-14  0.000000E+00
       219  12 -1.063729E+05 -9.656260E+04 -4.058710E+04 -3.706694E+03  7.754818E-15 -2.197199E-14
       219  13 -1.125405E+05 -8.973990E+04 -4.045608E+04 -7.487093E+03  2.067952E-14  2.067952E-14
       219  14 -1.086154E+05 -9.274045E+04 -4.027118E+04 -6.301419E+03 -6.203855E-14  0.000000E+00
       219  15 -1.056379E+05 -9.608290E+04 -4.034416E+04 -4.837810E+03 -2.584939E-14  2.843433E-14
       219  16 -1.118013E+05 -8.848249E+04 -4.005676E+04 -9.393564E+03  0.000000E+00  5.169879E-15
       219  17 -1.078364E+05 -9.196956E+04 -3.996120E+04 -7.834097E+03  1.033976E-14  5.169879E-15
       219  18 -1.048465E+05 -9.585198E+04 -4.013970E+04 -5.952749E+03  2.067952E-14 -1.163223E-14
       219  19 -1.132361E+05 -9.113851E+04 -4.087492E+04 -5.565789E+03  1.711230E-12 -2.114480E-12
       219  20 -1.093448E+05 -9.370242E+04 -4.060944E+04 -4.753426E+03  1.597493E-12 -2.042102E-12
       219  21 -1.063729E+05 -9.656260E+04 -4.058710E+04 -3.706694E+03  1.926426E-12 -2.155193E-12
       219  22 -1.125405E+05 -8.973990E+04 -4.045608E+04 -7.487093E+03  1.323489E-12 -1.716400E-12
       219  23 -1.086154E+05 -9.274045E+04 -4.027118E+04 -6.301419E+03  0.000000E+00  1.033976E-14
       219  24 -1.056379E+05 -9.608290E+04 -4.034416E+04 -4.837810E+03  1.690550E-12 -2.057612E-12
       219  25 -1.118013E+05 -8.848249E+04 -4.005676E+04 -9.393564E+03  1.654361E-12 -2.026593E-12
       219  26 -1.078364E+05 -9.196956E+04 -3.996120E+04 -7.834097E+03  1.530284E-12 -1.881836E-12
       219  27 -1.048465E+05 -9.585198E+04 -4.013970E+04 -5.952749E+03  1.943874E-12 -2.372974E-12
       220   1 -1.047611E+05 -9.778044E+04 -4.050831E+04 -2.785038E+03 -2.155839E-12  2.362635E-12
       220   2 -1.029302E+05 -9.944472E+04 -4.047498E+04 -1.538980E+03 -1.925780E-12  2.186859E-12
       220   3 -1.015777E+05 -1.012281E+05 -4.056116E+04 -2.311425E+02 -2.381375E-12  2.586878E-12
       220   4 -1.042205E+05 -9.728388E+04 -4.030087E+04 -3.670514E+03 -1.799118E-12  2.150670E-12
       220   5 -1.027768E+05 -9.929997E+04 -4.041536E+04 -1.994228E+03  0.000000E+00 -2.067952E-13
       220   6 -1.016863E+05 -1.013960E+05 -4.061646E+04 -2.766162E+02 -2.155839E-12  2.445353E-12
       220   7 -1.033595E+05 -9.682274E+04 -4.003644E+04 -4.378171E+03 -2.109311E-12  2.150670E-12
       220   8 -1.022951E+05 -9.917017E+04 -4.029305E+04 -2.309324E+03 -2.109311E-12  2.150670E-12
       220   9 -1.014786E+05 -1.015637E+05 -4.060848E+04 -2.182915E+02 -2.688337E-12  2.466032E-12
       220  10 -1.047611E+05 -9.778044E+04 -4.050831E+04 -2.785038E+03  1.033976E-14  0.000000E+00
       220  11 -1.029302E+05 -9.944472E+04 -4.047498E+04 -1.538980E+03  1.033976E-14  2.067952E-14
       220  12 -1.015777E+05 -1.012281E+05 -4.056116E+04 -2.311425E+02 -6.462349E-15  0.000000E+00
       220  13 -1.042205E+05 -9.728388E+04 -4.030087E+04 -3.670514E+03  0.000000E+00  0.000000E+00
       220  14 -1.027768E+05 -9.929997E+04 -4.041536E+04 -1.994228E+03  0.000000E+00 -1.033976E-14
       220  15 -1.016863E+05 -1.013960E+05 -4.061646E+04 -2.766162E+02 -2.584939E-15 -2.843433E-14
       220  16 -1.033595E+05 -9.682274E+04 -4.003644E+04 -4.378171E+03 -1.033976E-14  0.000000E+00
       220  17 -1.022951E+05 -9.917017E+04 -4.029305E+04 -2.309324E+03  2.584939E-14 -2.584939E-14
       220  18 -1.014786E+05 -1.015637E+05 -4.060848E+04 -2.182915E+02 -1.292470E-14  1.292470E-15
       220  19 -1.047611E+05 -9.778044E+04 -4.050831E+04 -2.785038E+03  2.073121E-12 -2.279917E-12
       220  20 -1.029302E+05 -9.944472E+04 -4.047498E+04 -1.538980E+03  1.925780E-12 -2.104141E-12
       220  21 -1.015777E+05 -1.012281E+05 -4.056116E+04 -2.311425E+02  2.298657E-12 -2.504160E-12
       220  22 -1.042205E+05 -9.728388E+04 -4.030087E+04 -3.670514E+03  1.881836E-12 -2.067952E-12
       220  23 -1.027768E+05 -9.929997E+04 -4.041536E+04 -1.994228E+03 -8.271806E-14  4.135903E-14
       220  24 -1.016863E+05 -1.013960E+05 -4.061646E+04 -2.766162E+02  2.238558E-12 -2.279917E-12
       220  25 -1.033595E+05 -9.682274E+04 -4.003644E+04 -4.378171E+03  1.943874E-12 -2.233388E-12
       220  26 -1.022951E+05 -9.917017E+04 -4.029305E+04 -2.309324E+03  2.109311E-12 -2.233388E-12
       220  27 -1.014786E+05 -1.015637E+05 -4.060848E+04 -2.182915E+02  2.605619E-12 -2.466032E-12
       221   1 -1.028101E+05 -9.690955E+04 -3.994392E+04 -4.775689E+03 -2.378144E-12  2.295426E-12
       221   2 -1.029977E+05 -9.962912E+04 -4.052537E+04 -1.969499E+03 -2.145500E-12  2.251482E-12
       221   3 -1.008647E+05 -1.006938E+05 -4.031169E+04 -5.150295E+02 -2.531948E-12  2.576538E-12
       221   4 -1.012105E+05 -9.741510E+04 -3.972513E+04 -5.952132E+03 -2.026593E-12  2.192029E-12
       221   5 -1.024649E+05 -9.952660E+04 -4.039830E+04 -2.456219E+03 -2.067952E-14 -1.654361E-13
       221   6 -1.017664E+05 -1.002678E+05 -4.040685E+04 -4.835558E+01 -2.347125E-12  2.313521E-12
       221   7 -9.958894E+04 -9.828878E+04 -3.957554E+04 -7.103303E+03 -2.316106E-12  2.481542E-12
       221   8 -1.018364E+05 -1.000350E+05 -4.037428E+04 -2.966820E+03 -2.171349E-12  2.150670E-12
       221   9 -1.024249E+05 -1.006526E+05 -4.061549E+04  2.923812E+02 -2.662488E-12  2.383314E-12
       221  10 -1.028101E+05 -9.690955E+04 -3.994392E+04 -4.775689E+03 -1.033976E-14 -5.169879E-15
       221  11 -1.029977E+05 -9.962912E+04 -4.052537E+04 -1.969499E+03  2.584939E-15  1.550964E-14
       221  12 -1.008647E+05 -1.006938E+05 -4.031169E+04 -5.150295E+02 -3.877409E-15 -2.067952E-14
       221  13 -1.012105E+05 -9.741510E+04 -3.972513E+04 -5.952132E+03  2.067952E-14  2.067952E-14
       221  14 -1.024649E+05 -9.952660E+04 -4.039830E+04 -2.456219E+03  2.067952E-14 -3.101927E-14
       221  15 -1.017664E+05 -1.002678E+05 -4.040685E+04 -4.835558E+01 -1.292470E-14  1.033976E-14
       221  16 -9.958894E+04 -9.828878E+04 -3.957554E+04 -7.103303E+03  0.000000E+00 -1.550964E-14
       221  17 -1.018364E+05 -1.000350E+05 -4.037428E+04 -2.966820E+03 -7.754818E-15  0.000000E+00
       221  18 -1.024249E+05 -1.006526E+05 -4.061549E+04  2.923812E+02 -5.169879E-15  1.292470E-15
       221  19 -1.028101E+05 -9.690955E+04 -3.994392E+04 -4.775689E+03  2.047272E-12 -2.295426E-12
       221  20 -1.029977E+05 -9.962912E+04 -4.052537E+04 -1.969499E+03  2.104141E-12 -2.251482E-12
       221  21 -1.008647E+05 -1.006938E+05 -4.031169E+04 -5.150295E+02  2.531948E-12 -2.493820E-12
       221  22 -1.012105E+05 -9.741510E+04 -3.972513E+04 -5.952132E+03  1.943874E-12 -2.192029E-12
       221  23 -1.024649E+05 -9.952660E+04 -4.039830E+04 -2.456219E+03  2.067952E-14  0.000000E+00
       221  24 -1.017664E+05 -1.002678E+05 -4.040685E+04 -4.835558E+01  2.305766E-12 -2.148085E-12
       221  25 -9.958894E+04 -9.828878E+04 -3.957554E+04 -7.103303E+03  2.274747E-12 -2.398824E-12
       221  26 -1.018364E+05 -1.000350E+05 -4.037428E+04 -2.966820E+03  2.254067E-12 -2.150670E-12
       221  27 -1.024249E+05 -1.006526E+05 -4.061549E+04  2.923812E+02  2.703847E-12 -2.466032E-12
       222   1 -1.113458E+05 -8.743748E+04 -3.975665E+04 -1.074196E+04 -1.659531E-12  1.918025E-12
       222   2 -1.072348E+05 -9.119149E+04 -3.968527E+04 -8.994049E+03 -1.548379E-12  1.874081E-12
       222   3 -1.038753E+05 -9.523248E+04 -3.982155E+04 -7.030136E+03 -2.037578E-12  2.243081E-12
       222   4 -1.114678E+05 -8.523918E+04 -3.934140E+04 -1.328284E+04 -1.261450E-12  1.778438E-12
       222   5 -1.068929E+05 -8.931398E+04 -3.924139E+04 -1.134471E+04  1.033976E-14 -8.271806E-14
       222   6 -1.029572E+05 -9.363497E+04 -3.931843E+04 -9.222191E+03 -1.796533E-12  2.067952E-12
       222   7 -1.115842E+05 -8.292143E+04 -3.890113E+04 -1.584365E+04 -1.364848E-12  1.861156E-12
       222   8 -1.065667E+05 -8.728278E+04 -3.876989E+04 -1.373620E+04 -1.509605E-12  1.819797E-12
       222   9 -1.020856E+05 -9.185185E+04 -3.878749E+04 -1.147402E+04 -1.902515E-12  2.114480E-12
       222  10 -1.113458E+05 -8.743748E+04 -3.975665E+04 -1.074196E+04  0.000000E+00 -5.169879E-15
       222  11 -1.072348E+05 -9.119149E+04 -3.968527E+04 -8.994049E+03  1.033976E-14  5.169879E-15
       222  12 -1.038753E+05 -9.523248E+04 -3.982155E+04 -7.030136E+03 -1.227846E-14  6.462349E-16
       222  13 -1.114678E+05 -8.523918E+04 -3.934140E+04 -1.328284E+04  0.000000E+00  2.067952E-14
       222  14 -1.068929E+05 -8.931398E+04 -3.924139E+04 -1.134471E+04  1.033976E-14 -2.067952E-14
       222  15 -1.029572E+05 -9.363497E+04 -3.931843E+04 -9.222191E+03 -2.584939E-14  3.877409E-15
       222  16 -1.115842E+05 -8.292143E+04 -3.890113E+04 -1.584365E+04  1.033976E-14  5.169879E-15
       222  17 -1.065667E+05 -8.728278E+04 -3.876989E+04 -1.373620E+04  1.033976E-14 -7.754818E-15
       222  18 -1.020856E+05 -9.185185E+04 -3.878749E+04 -1.147402E+04  9.047288E-15 -1.227846E-14
       222  19 -1.113458E+05 -8.743748E+04 -3.975665E+04 -1.074196E+04  1.494095E-12 -1.959384E-12
       222  20 -1.072348E+05 -9.119149E+04 -3.968527E+04 -8.994049E+03  1.548379E-12 -1.874081E-12
       222  21 -1.038753E+05 -9.523248E+04 -3.982155E+04 -7.030136E+03  1.954860E-12 -2.243081E-12
       222  22 -1.114678E+05 -8.523918E+04 -3.934140E+04 -1.328284E+04  1.096014E-12 -1.737079E-12
       222  23 -1.068929E+05 -8.931398E+04 -3.924139E+04 -1.134471E+04  7.237830E-14  0.000000E+00
       222  24 -1.029572E+05 -9.363497E+04 -3.931843E+04 -9.222191E+03  1.755174E-12 -1.985233E-12
       222  25 -1.115842E+05 -8.292143E+04 -3.890113E+04 -1.584365E+04  1.282130E-12 -1.861156E-12
       222  26 -1.065667E+05 -8.728278E+04 -3.876989E+04 -1.373620E+04  1.426887E-12 -1.778438E-12
       222  27 -1.020856E+05 -9.185185E+04 -3.878749E+04 -1.147402E+04  1.943874E-12 -2.114480E-12
       223   1 -2.880886E+05 -2.021752E+05 -9.805277E+04  4.897579E+04  1.654361E-11 -6.617445E-12
       223   2 -2.895871E+05 -1.997782E+05 -9.787307E+04  5.398943E+04  1.654361E-12 -3.705769E-11
       223   3 -2.917845E+05 -1.974074E+05 -9.783838E+04  5.892433E+04 -2.167213E-11  8.768114E-12
       223   4 -2.906037E+05 -2.063516E+05 -9.939104E+04  5.150935E+04  5.293956E-12  1.588187E-11
       223   5 -2.921482E+05 -2.031520E+05 -9.906003E+04  5.712833E+04  7.940934E-12 -2.646978E-11
       223   6 -2.942226E+05 -1.999848E+05 -9.884148E+04  6.273349E+04  1.323489E-11 -3.110199E-11
       223   7 -2.930084E+05 -2.103705E+05 -1.006758E+05  5.417779E+04  5.293956E-12 -1.058791E-11
       223   8 -2.946490E+05 -2.065227E+05 -1.002344E+05  6.033588E+04  1.058791E-11 -2.646978E-11
       223   9 -2.966865E+05 -2.027298E+05 -9.988324E+04  6.652598E+04  2.646978E-12  9.264423E-12
       223  10 -2.880886E+05 -2.021752E+05 -9.805277E+04  4.897579E+04 -6.617445E-13  0.000000E+00
       223  11 -2.895871E+05 -1.997782E+05 -9.787307E+04  5.398943E+04 -1.654361E-12  2.646978E-12
       223  12 -2.917845E+05 -1.974074E+05 -9.783838E+04  5.892433E+04  3.308722E-13  3.970467E-12
       223  13 -2.906037E+05 -2.063516E+05 -9.939104E+04  5.150935E+04 -1.323489E-12  5.293956E-12
       223  14 -2.921482E+05 -2.031520E+05 -9.906003E+04  5.712833E+04  3.970467E-12  0.000000E+00
       223  15 -2.942226E+05 -1.999848E+05 -9.884148E+04  6.273349E+04 -3.639595E-12  1.985233E-12
       223  16 -2.930084E+05 -2.103705E+05 -1.006758E+05  5.417779E+04  6.617445E-13 -2.646978E-12
       223  17 -2.946490E+05 -2.065227E+05 -1.002344E+05  6.033588E+04  3.639595E-12  0.000000E+00
       223  18 -2.966865E+05 -2.027298E+05 -9.988324E+04  6.652598E+04  0.000000E+00  1.654361E-12
       223  19 -2.880886E+05 -2.021752E+05 -9.805277E+04  4.897579E+04  4.632211E-12  2.779327E-11
       223  20 -2.895871E+05 -1.997782E+05 -9.787307E+04  5.398943E+04 -1.224227E-11 -5.293956E-12
       223  21 -2.917845E+05 -1.974074E+05 -9.783838E+04  5.892433E+04 -4.797648E-12  1.240771E-11
       223  22 -2.906037E+05 -2.063516E+05 -9.939104E+04  5.150935E+04 -2.117582E-11 -1.588187E-11
       223  23 -2.921482E+05 -2.031520E+05 -9.906003E+04  5.712833E+04  2.646978E-12  5.293956E-12
       223  24 -2.942226E+05 -1.999848E+05 -9.884148E+04  6.273349E+04 -7.940934E-12  5.227781E-11
       223  25 -2.930084E+05 -2.103705E+05 -1.006758E+05  5.417779E+04 -1.588187E-11 -1.058791E-11
       223  26 -2.946490E+05 -2.065227E+05 -1.002344E+05  6.033588E+04 -1.058791E-11 -1.588187E-11
       223  27 -2.966865E+05 -2.027298E+05 -9.988324E+04  6.652598E+04 -1.323489E-11 -9.264423E-12
       224   1 -2.901784E+05 -1.940490E+05 -9.684547E+04  6.163500E+04 -1.323489E-11 -7.940934E-12
       224   2 -2.885835E+05 -1.889005E+05 -9.549682E+04  6.184577E+04  3.308722E-13 -5.955700E-12
       224   3 -2.873898E+05 -1.832488E+05 -9.412771E+04  6.230577E+04 -1.249043E-11  2.812414E-12
       224   4 -2.943557E+05 -1.968360E+05 -9.823835E+04  6.560831E+04 -5.293956E-12 -5.293956E-12
       224   5 -2.939119E+05 -1.915094E+05 -9.708427E+04  6.800775E+04  2.646978E-12 -1.058791E-11
       224   6 -2.930499E+05 -1.854354E+05 -9.569707E+04  7.007394E+04  8.933551E-12 -7.940934E-12
       224   7 -2.980457E+05 -2.000040E+05 -9.960992E+04  6.987141E+04  0.000000E+00 -1.058791E-11
       224   8 -2.995408E+05 -1.944711E+05 -9.880237E+04  7.397294E+04  0.000000E+00 -5.293956E-12
       224   9 -2.996437E+05 -1.879910E+05 -9.752692E+04  7.740860E+04 -1.323489E-12 -1.058791E-11
       224  10 -2.901784E+05 -1.940490E+05 -9.684547E+04  6.163500E+04 -1.985233E-12  0.000000E+00
       224  11 -2.885835E+05 -1.889005E+05 -9.549682E+04  6.184577E+04  6.617445E-13  2.646978E-12
       224  12 -2.873898E+05 -1.832488E+05 -9.412771E+04  6.230577E+04  4.135903E-13 -3.308722E-13
       224  13 -2.943557E+05 -1.968360E+05 -9.823835E+04  6.560831E+04  0.000000E+00  0.000000E+00
       224  14 -2.939119E+05 -1.915094E+05 -9.708427E+04  6.800775E+04 -2.646978E-12  0.000000E+00
       224  15 -2.930499E+05 -1.854354E+05 -9.569707E+04  7.007394E+04  6.617445E-13  1.323489E-12
       224  16 -2.980457E+05 -2.000040E+05 -9.960992E+04  6.987141E+04 -6.617445E-13  2.646978E-12
       224  17 -2.995408E+05 -1.944711E+05 -9.880237E+04  7.397294E+04 -6.617445E-13  1.323489E-12
       224  18 -2.996437E+05 -1.879910E+05 -9.752692E+04  7.740860E+04  1.902515E-12  3.308722E-13
       224  19 -2.901784E+05 -1.940490E+05 -9.684547E+04  6.163500E+04 -1.323489E-11 -1.323489E-11
       224  20 -2.885835E+05 -1.889005E+05 -9.549682E+04  6.184577E+04 -3.308722E-13 -1.522012E-11
       224  21 -2.873898E+05 -1.832488E+05 -9.412771E+04  6.230577E+04  1.249043E-11  1.836341E-11
       224  22 -2.943557E+05 -1.968360E+05 -9.823835E+04  6.560831E+04 -1.588187E-11  2.646978E-11
       224  23 -2.939119E+05 -1.915094E+05 -9.708427E+04  6.800775E+04 -2.646978E-12 -1.058791E-11
       224  24 -2.930499E+05 -1.854354E+05 -9.569707E+04  7.007394E+04 -8.933551E-12  7.940934E-12
       224  25 -2.980457E+05 -2.000040E+05 -9.960992E+04  6.987141E+04  0.000000E+00 -1.058791E-11
       224  26 -2.995408E+05 -1.944711E+05 -9.880237E+04  7.397294E+04  1.058791E-11 -1.588187E-11
       224  27 -2.996437E+05 -1.879910E+05 -9.752692E+04  7.740860E+04  1.323489E-12 -1.058791E-11
       225   1 -3.005513E+05 -2.026628E+05 -1.006428E+05  7.287277E+04  1.323489E-12  1.323489E-11
       225   2 -3.028199E+05 -1.968321E+05 -9.993041E+04  7.747535E+04  2.977850E-12 -1.588187E-11
       225   3 -3.046832E+05 -1.906073E+05 -9.905811E+04  8.181794E+04 -2.258203E-11 -5.062345E-11
       225   4 -3.065938E+05 -2.082786E+05 -1.029745E+05  7.875938E+04  7.940934E-12 -1.058791E-11
       225   5 -3.100372E+05 -2.023080E+05 -1.024690E+05  8.404609E+04 -1.058791E-11  5.293956E-12
       225   6 -3.130367E+05 -1.959660E+05 -1.018005E+05  8.907739E+04  8.271806E-12 -1.786710E-11
       225   7 -3.124352E+05 -2.144905E+05 -1.053851E+05  8.490140E+04  5.293956E-12  0.000000E+00
       225   8 -3.170483E+05 -2.084057E+05 -1.050908E+05  9.082877E+04  1.058791E-11 -1.058791E-11
       225   9 -3.211826E+05 -2.019694E+05 -1.046304E+05  9.650652E+04  3.308722E-11 -7.940934E-12
       225  10 -3.005513E+05 -2.026628E+05 -1.006428E+05  7.287277E+04  0.000000E+00  1.323489E-12
       225  11 -3.028199E+05 -1.968321E+05 -9.993041E+04  7.747535E+04 -9.926167E-13  1.323489E-12
       225  12 -3.046832E+05 -1.906073E+05 -9.905811E+04  8.181794E+04  1.158053E-12 -3.474159E-12
       225  13 -3.065938E+05 -2.082786E+05 -1.029745E+05  7.875938E+04 -2.646978E-12  0.000000E+00
       225  14 -3.100372E+05 -2.023080E+05 -1.024690E+05  8.404609E+04  7.940934E-12  5.293956E-12
       225  15 -3.130367E+05 -1.959660E+05 -1.018005E+05  8.907739E+04  1.323489E-12 -7.279189E-12
       225  16 -3.124352E+05 -2.144905E+05 -1.053851E+05  8.490140E+04  3.970467E-12 -1.323489E-12
       225  17 -3.170483E+05 -2.084057E+05 -1.050908E+05  9.082877E+04  0.000000E+00 -1.323489E-12
       225  18 -3.211826E+05 -2.019694E+05 -1.046304E+05  9.650652E+04  0.000000E+00  0.000000E+00
       225  19 -3.005513E+05 -2.026628E+05 -1.006428E+05  7.287277E+04 -1.191140E-11  7.940934E-12
       225  20 -3.028199E+05 -1.968321E+05 -9.993041E+04  7.747535E+04 -1.356576E-11 -5.293956E-12
       225  21 -3.046832E+05 -1.906073E+05 -9.905811E+04  8.181794E+04  1.199412E-11  2.944763E-11
       225  22 -3.065938E+05 -2.082786E+05 -1.029745E+05  7.875938E+04 -2.646978E-12  3.176374E-11
       225  23 -3.100372E+05 -2.023080E+05 -1.024690E+05  8.404609E+04  2.117582E-11 -5.293956E-12
       225  24 -3.130367E+05 -1.959660E+05 -1.018005E+05  8.907739E+04  2.316106E-12 -3.308722E-12
       225  25 -3.124352E+05 -2.144905E+05 -1.053851E+05  8.490140E+04 -1.588187E-11 -2.117582E-11
       225  26 -3.170483E+05 -2.084057E+05 -1.050908E+05  9.082877E+04 -2.117582E-11 -1.058791E-11
       225  27 -3.211826E+05 -2.019694E+05 -1.046304E+05  9.650652E+04 -2.249931E-11  7.940934E-12
       226   1 -2.946254E+05 -2.131434E+05 -1.015538E+05  5.615513E+04  6.617445E-12  2.382280E-11
       226   2 -2.970182E+05 -2.093723E+05 -1.012781E+05  6.287624E+04  2.316106E-12 -1.919059E-11
       226   3 -2.992671E+05 -2.054673E+05 -1.009469E+05  6.949268E+04  4.880366E-12  1.158053E-12
       226   4 -2.980366E+05 -2.187772E+05 -1.033628E+05  6.016336E+04  0.000000E+00 -1.588187E-11
       226   5 -3.014645E+05 -2.150334E+05 -1.032996E+05  6.764861E+04  5.293956E-12  2.646978E-12
       226   6 -3.046493E+05 -2.111465E+05 -1.031592E+05  7.502224E+04  1.852885E-11 -3.308722E-11
       226   7 -3.013489E+05 -2.249057E+05 -1.052509E+05  6.446506E+04  0.000000E+00 -3.176374E-11
       226   8 -3.058103E+05 -2.212068E+05 -1.054034E+05  7.264917E+04  2.646978E-12 -1.058791E-11
       226   9 -3.099400E+05 -2.173557E+05 -1.054592E+05  8.071774E+04  1.058791E-11 -7.940934E-12
       226  10 -2.946254E+05 -2.131434E+05 -1.015538E+05  5.615513E+04 -6.617445E-13  2.646978E-12
       226  11 -2.970182E+05 -2.093723E+05 -1.012781E+05  6.287624E+04 -1.323489E-12 -1.323489E-12
       226  12 -2.992671E+05 -2.054673E+05 -1.009469E+05  6.949268E+04  9.098987E-13 -8.271806E-13
       226  13 -2.980366E+05 -2.187772E+05 -1.033628E+05  6.016336E+04  0.000000E+00  0.000000E+00
       226  14 -3.014645E+05 -2.150334E+05 -1.032996E+05  6.764861E+04 -1.323489E-12 -2.646978E-12
       226  15 -3.046493E+05 -2.111465E+05 -1.031592E+05  7.502224E+04 -1.158053E-12 -3.308722E-12
       226  16 -3.013489E+05 -2.249057E+05 -1.052509E+05  6.446506E+04 -6.617445E-13  1.323489E-12
       226  17 -3.058103E+05 -2.212068E+05 -1.054034E+05  7.264917E+04 -6.617445E-13  0.000000E+00
       226  18 -3.099400E+05 -2.173557E+05 -1.054592E+05  8.071774E+04  4.963084E-13  9.926167E-13
       226  19 -2.946254E+05 -2.131434E+05 -1.015538E+05  5.615513E+04 -6.617445E-12 -2.646978E-12
       226  20 -2.970182E+05 -2.093723E+05 -1.012781E+05  6.287624E+04 -7.610062E-12 -1.985233E-12
       226  21 -2.992671E+05 -2.054673E+05 -1.009469E+05  6.949268E+04 -1.546828E-11  2.001777E-11
       226  22 -2.980366E+05 -2.187772E+05 -1.033628E+05  6.016336E+04  0.000000E+00 -5.293956E-12
       226  23 -3.014645E+05 -2.150334E+05 -1.032996E+05  6.764861E+04  1.058791E-11 -2.646978E-12
       226  24 -3.046493E+05 -2.111465E+05 -1.031592E+05  7.502224E+04 -1.852885E-11  1.191140E-11
       226  25 -3.013489E+05 -2.249057E+05 -1.052509E+05  6.446506E+04  0.000000E+00  3.176374E-11
       226  26 -3.058103E+05 -2.212068E+05 -1.054034E+05  7.264917E+04 -1.852885E-11  1.058791E-11
       226  27 -3.099400E+05 -2.173557E+05 -1.054592E+05  8.071774E+04  0.000000E+00  7.940934E-12
       227   1 -5.321823E+05 -1.881579E+05 -1.440681E+05  1.723382E+05  6.286573E-12  6.617445E-13
       227   2 -5.439092E+05 -1.782650E+05 -1.444348E+05  1.715195E+05 -1.654361E-12 -3.474159E-12
       227   3 -5.565851E+05 -1.690995E+05 -1.451369E+05  1.716074E+05 -1.240771E-12 -2.481542E-12
       227   4 -5.069748E+05 -1.979639E+05 -1.409877E+05  1.700950E+05 -1.323489E-12 -5.293956E-12
       227   5 -5.158574E+05 -1.868622E+05 -1.405439E+05  1.695287E+05 -6.617445E-12  6.617445E-12
       227   6 -5.257657E+05 -1.765309E+05 -1.404593E+05  1.698531E+05  4.301339E-12  9.926167E-13
       227   7 -4.813551E+05 -2.067106E+05 -1.376131E+05  1.682886E+05  0.000000E+00 -5.293956E-12
       227   8 -4.874133E+05 -1.944627E+05 -1.363752E+05  1.679636E+05  1.323489E-12  3.970467E-12
       227   9 -4.945692E+05 -1.830214E+05 -1.355181E+05  1.685148E+05  5.955700E-12 -1.323489E-12
       227  10 -5.321823E+05 -1.881579E+05 -1.440681E+05  1.723382E+05  0.000000E+00 -3.308722E-13
       227  11 -5.439092E+05 -1.782650E+05 -1.444348E+05  1.715195E+05  1.158053E-12  0.000000E+00
       227  12 -5.565851E+05 -1.690995E+05 -1.451369E+05  1.716074E+05  2.481542E-13 -4.135903E-14
       227  13 -5.069748E+05 -1.979639E+05 -1.409877E+05  1.700950E+05  1.323489E-12  1.323489E-12
       227  14 -5.158574E+05 -1.868622E+05 -1.405439E+05  1.695287E+05  2.646978E-12  1.323489E-12
       227  15 -5.257657E+05 -1.765309E+05 -1.404593E+05  1.698531E+05  1.158053E-12 -1.654361E-13
       227  16 -4.813551E+05 -2.067106E+05 -1.376131E+05  1.682886E+05 -3.308722E-13 -6.617445E-13
       227  17 -4.874133E+05 -1.944627E+05 -1.363752E+05  1.679636E+05 -8.271806E-13  3.308722E-13
       227  18 -4.945692E+05 -1.830214E+05 -1.355181E+05  1.685148E+05  5.376674E-13  2.067952E-13
       227  19 -5.321823E+05 -1.881579E+05 -1.440681E+05  1.723382E+05 -3.639595E-12  1.985233E-12
       227  20 -5.439092E+05 -1.782650E+05 -1.444348E+05  1.715195E+05 -3.639595E-12  8.271806E-13
       227  21 -5.565851E+05 -1.690995E+05 -1.451369E+05  1.716074E+05 -1.406207E-12 -1.654361E-13
       227  22 -5.069748E+05 -1.979639E+05 -1.409877E+05  1.700950E+05  1.323489E-12 -5.293956E-12
       227  23 -5.158574E+05 -1.868622E+05 -1.405439E+05  1.695287E+05  1.323489E-12  3.970467E-12
       227  24 -5.257657E+05 -1.765309E+05 -1.404593E+05  1.698531E+05  9.926167E-13 -3.639595E-12
       227  25 -4.813551E+05 -2.067106E+05 -1.376131E+05  1.682886E+05 -5.293956E-12  5.293956E-12
       227  26 -4.874133E+05 -1.944627E+05 -1.363752E+05  1.679636E+05 -1.323489E-12  1.323489E-12
       227  27 -4.945692E+05 -1.830214E+05 -1.355181E+05  1.685148E+05 -6.617445E-13 -3.970467E-12
       228   1 -5.638419E+05 -1.622803E+05 -1.452244E+05  1.722124E+05  0.000000E+00 -3.308722E-13
       228   2 -5.793032E+05 -1.553527E+05 -1.469312E+05  1.701903E+05  1.654361E-12 -3.308722E-13
       228   3 -5.950402E+05 -1.479612E+05 -1.486003E+05  1.684437E+05 -3.722313E-13 -3.308722E-13
       228   4 -5.295171E+05 -1.687142E+05 -1.396463E+05  1.715027E+05  3.970467E-12 -2.646978E-12
       228   5 -5.389517E+05 -1.631639E+05 -1.404231E+05  1.705820E+05  0.000000E+00 -1.323489E-12
       228   6 -5.491707E+05 -1.553593E+05 -1.409060E+05  1.702209E+05 -3.308722E-13  4.963084E-13
       228   7 -4.975437E+05 -1.780753E+05 -1.351238E+05  1.692061E+05  0.000000E+00 -2.646978E-12
       228   8 -4.987352E+05 -1.716393E+05 -1.340749E+05  1.707805E+05  0.000000E+00  0.000000E+00
       228   9 -5.016935E+05 -1.611912E+05 -1.325769E+05  1.730191E+05 -1.323489E-12  2.316106E-12
       228  10 -5.638419E+05 -1.622803E+05 -1.452244E+05  1.722124E+05  3.308722E-13  0.000000E+00
       228  11 -5.793032E+05 -1.553527E+05 -1.469312E+05  1.701903E+05 -1.654361E-13  3.308722E-13
       228  12 -5.950402E+05 -1.479612E+05 -1.486003E+05  1.684437E+05  0.000000E+00 -2.895132E-13
       228  13 -5.295171E+05 -1.687142E+05 -1.396463E+05  1.715027E+05  0.000000E+00  6.617445E-13
       228  14 -5.389517E+05 -1.631639E+05 -1.404231E+05  1.705820E+05  3.308722E-13 -6.617445E-13
       228  15 -5.491707E+05 -1.553593E+05 -1.409060E+05  1.702209E+05  8.271806E-14  0.000000E+00
       228  16 -4.975437E+05 -1.780753E+05 -1.351238E+05  1.692061E+05 -3.308722E-13  3.308722E-13
       228  17 -4.987352E+05 -1.716393E+05 -1.340749E+05  1.707805E+05 -8.271806E-13  1.654361E-13
       228  18 -5.016935E+05 -1.611912E+05 -1.325769E+05  1.730191E+05  0.000000E+00 -1.654361E-13
       228  19 -5.638419E+05 -1.622803E+05 -1.452244E+05  1.722124E+05 -2.646978E-12  1.654361E-12
       228  20 -5.793032E+05 -1.553527E+05 -1.469312E+05  1.701903E+05 -2.977850E-12  1.654361E-12
       228  21 -5.950402E+05 -1.479612E+05 -1.486003E+05  1.684437E+05 -6.203855E-13  0.000000E+00
       228  22 -5.295171E+05 -1.687142E+05 -1.396463E+05  1.715027E+05 -1.323489E-12  0.000000E+00
       228  23 -5.389517E+05 -1.631639E+05 -1.404231E+05  1.705820E+05  2.646978E-12 -1.323489E-12
       228  24 -5.491707E+05 -1.553593E+05 -1.409060E+05  1.702209E+05 -9.926167E-13 -4.963084E-13
       228  25 -4.975437E+05 -1.780753E+05 -1.351238E+05  1.692061E+05  0.000000E+00  2.646978E-12
       228  26 -4.987352E+05 -1.716393E+05 -1.340749E+05  1.707805E+05  0.000000E+00  0.000000E+00
       228  27 -5.016935E+05 -1.611912E+05 -1.325769E+05  1.730191E+05  1.323489E-12 -9.926167E-13
       229   1 -4.786450E+05 -1.844612E+05 -1.326212E+05  1.668344E+05  2.316106E-12 -6.617445E-13
       229   2 -4.767660E+05 -1.761322E+05 -1.305797E+05  1.692522E+05  8.768114E-12 -4.963084E-12
       229   3 -4.757832E+05 -1.685714E+05 -1.288709E+05  1.722422E+05  3.226004E-12  2.729696E-12
       229   4 -4.465448E+05 -1.955943E+05 -1.284278E+05  1.632217E+05  2.646978E-12 -3.970467E-12
       229   5 -4.439645E+05 -1.870920E+05 -1.262113E+05  1.651747E+05 -1.985233E-12 -3.970467E-12
       229   6 -4.422640E+05 -1.793949E+05 -1.243318E+05  1.677116E+05  3.805031E-12 -1.654361E-13
       229   7 -4.156815E+05 -2.068367E+05 -1.245036E+05  1.591153E+05  1.058791E-11  2.646978E-12
       229   8 -4.123601E+05 -1.981628E+05 -1.221046E+05  1.605612E+05 -2.646978E-12  0.000000E+00
       229   9 -4.098980E+05 -1.903348E+05 -1.200466E+05  1.626009E+05  6.948317E-12  1.985233E-12
       229  10 -4.786450E+05 -1.844612E+05 -1.326212E+05  1.668344E+05  6.617445E-13 -3.308722E-13
       229  11 -4.767660E+05 -1.761322E+05 -1.305797E+05  1.692522E+05 -1.654361E-13  0.000000E+00
       229  12 -4.757832E+05 -1.685714E+05 -1.288709E+05  1.722422E+05 -4.135903E-14  4.549493E-13
       229  13 -4.465448E+05 -1.955943E+05 -1.284278E+05  1.632217E+05  0.000000E+00 -1.323489E-12
       229  14 -4.439645E+05 -1.870920E+05 -1.262113E+05  1.651747E+05  6.617445E-13  1.985233E-12
       229  15 -4.422640E+05 -1.793949E+05 -1.243318E+05  1.677116E+05 -5.790264E-13 -1.654361E-13
       229  16 -4.156815E+05 -2.068367E+05 -1.245036E+05  1.591153E+05  0.000000E+00  3.308722E-13
       229  17 -4.123601E+05 -1.981628E+05 -1.221046E+05  1.605612E+05 -1.654361E-13 -1.654361E-13
       229  18 -4.098980E+05 -1.903348E+05 -1.200466E+05  1.626009E+05 -5.376674E-13  7.444626E-13
       229  19 -4.786450E+05 -1.844612E+05 -1.326212E+05  1.668344E+05 -2.316106E-12 -1.985233E-12
       229  20 -4.767660E+05 -1.761322E+05 -1.305797E+05  1.692522E+05 -3.474159E-12  2.316106E-12
       229  21 -4.757832E+05 -1.685714E+05 -1.288709E+05  1.722422E+05 -5.790264E-13  1.240771E-12
       229  22 -4.465448E+05 -1.955943E+05 -1.284278E+05  1.632217E+05 -7.940934E-12  3.970467E-12
       229  23 -4.439645E+05 -1.870920E+05 -1.262113E+05  1.651747E+05  1.985233E-12  3.970467E-12
       229  24 -4.422640E+05 -1.793949E+05 -1.243318E+05  1.677116E+05 -6.452009E-12 -2.481542E-12
       229  25 -4.156815E+05 -2.068367E+05 -1.245036E+05  1.591153E+05 -1.058791E-11 -2.646978E-12
       229  26 -4.123601E+05 -1.981628E+05 -1.221046E+05  1.605612E+05 -5.293956E-12  0.000000E+00
       229  27 -4.098980E+05 -1.903348E+05 -1.200466E+05  1.626009E+05 -6.948317E-12 -1.985233E-12
       230   1 -4.651601E+05 -2.136913E+05 -1.357703E+05  1.661726E+05  9.926167E-13  3.970467E-12
       230   2 -4.702040E+05 -2.024190E+05 -1.345246E+05  1.662923E+05  5.955700E-12 -2.646978E-12
       230   3 -4.757993E+05 -1.898381E+05 -1.331275E+05  1.668894E+05  2.398824E-12 -7.361907E-12
       230   4 -4.368842E+05 -2.261665E+05 -1.326101E+05  1.606616E+05 -7.940934E-12  5.293956E-12
       230   5 -4.405549E+05 -2.143198E+05 -1.309750E+05  1.615958E+05  1.323489E-12  1.323489E-12
       230   6 -4.447438E+05 -2.011728E+05 -1.291833E+05  1.630190E+05  3.970467E-12 -5.293956E-12
       230   7 -4.097444E+05 -2.399370E+05 -1.299363E+05  1.544249E+05 -5.293956E-12 -1.058791E-11
       230   8 -4.120713E+05 -2.275432E+05 -1.279229E+05  1.561566E+05  7.940934E-12 -5.293956E-12
       230   9 -4.148844E+05 -2.138579E+05 -1.257485E+05  1.583883E+05  9.926167E-13 -3.308722E-12
       230  10 -4.651601E+05 -2.136913E+05 -1.357703E+05  1.661726E+05  6.617445E-13 -6.617445E-13
       230  11 -4.702040E+05 -2.024190E+05 -1.345246E+05  1.662923E+05  0.000000E+00  9.926167E-13
       230  12 -4.757993E+05 -1.898381E+05 -1.331275E+05  1.668894E+05 -7.444626E-13  4.963084E-13
       230  13 -4.368842E+05 -2.261665E+05 -1.326101E+05  1.606616E+05  0.000000E+00  0.000000E+00
       230  14 -4.405549E+05 -2.143198E+05 -1.309750E+05  1.615958E+05 -6.617445E-13  0.000000E+00
       230  15 -4.447438E+05 -2.011728E+05 -1.291833E+05  1.630190E+05 -3.308722E-13 -1.158053E-12
       230  16 -4.097444E+05 -2.399370E+05 -1.299363E+05  1.544249E+05 -6.617445E-13  0.000000E+00
       230  17 -4.120713E+05 -2.275432E+05 -1.279229E+05  1.561566E+05 -3.308722E-13  0.000000E+00
       230  18 -4.148844E+05 -2.138579E+05 -1.257485E+05  1.583883E+05 -2.481542E-13  0.000000E+00
       230  19 -4.651601E+05 -2.136913E+05 -1.357703E+05  1.661726E+05 -6.286573E-12 -3.970467E-12
       230  20 -4.702040E+05 -2.024190E+05 -1.345246E+05  1.662923E+05 -6.617445E-13  0.000000E+00
       230  21 -4.757993E+05 -1.898381E+05 -1.331275E+05  1.668894E+05 -2.398824E-12  4.714929E-12
       230  22 -4.368842E+05 -2.261665E+05 -1.326101E+05  1.606616E+05 -2.646978E-12  0.000000E+00
       230  23 -4.405549E+05 -2.143198E+05 -1.309750E+05  1.615958E+05  3.970467E-12 -1.323489E-12
       230  24 -4.447438E+05 -2.011728E+05 -1.291833E+05  1.630190E+05  1.323489E-12  0.000000E+00
       230  25 -4.097444E+05 -2.399370E+05 -1.299363E+05  1.544249E+05  0.000000E+00  1.058791E-11
       230  26 -4.120713E+05 -2.275432E+05 -1.279229E+05  1.561566E+05  0.000000E+00  0.000000E+00
       230  27 -4.148844E+05 -2.138579E+05 -1.257485E+05  1.583883E+05 -9.926167E-13 -1.985233E-12
       231   1 -2.211363E+05 -2.128912E+05 -8.680549E+04  2.785644E+05  8.271806E-14  1.819797E-12
       231   2 -2.145307E+05 -1.787449E+05 -7.865511E+04  2.833107E+05  1.499265E-13 -5.790264E-13
       231   3 -2.472703E+05 -1.634372E+05 -8.214149E+04  2.738182E+05  5.505921E-13 -1.385528E-12
       231   4 -1.652392E+05 -2.292463E+05 -7.889709E+04  2.816517E+05  5.790264E-13 -1.985233E-12
       231   5 -1.970741E+05 -1.905284E+05 -7.752049E+04  2.893364E+05 -1.447566E-13  6.617445E-13
       231   6 -2.594604E+05 -1.707650E+05 -8.604509E+04  2.831176E+05  4.135903E-14  7.444626E-13
       231   7 -9.285063E+04 -2.443345E+05 -6.743703E+04  2.934671E+05  2.481542E-13  0.000000E+00
       231   8 -1.612144E+05 -2.008711E+05 -7.241709E+04  3.017806E+05  2.481542E-13  6.617445E-13
       231   9 -2.528823E+05 -1.765073E+05 -8.587793E+04  2.970604E+05  1.240771E-13 -1.654361E-13
       231  10 -2.211363E+05 -2.128912E+05 -8.680549E+04  2.785644E+05  0.000000E+00  1.654361E-13
       231  11 -2.145307E+05 -1.787449E+05 -7.865511E+04  2.833107E+05  5.169879E-14  1.654361E-13
       231  12 -2.472703E+05 -1.634372E+05 -8.214149E+04  2.738182E+05  4.135903E-14  6.203855E-14
       231  13 -1.652392E+05 -2.292463E+05 -7.889709E+04  2.816517E+05  8.271806E-14 -3.308722E-13
       231  14 -1.970741E+05 -1.905284E+05 -7.752049E+04  2.893364E+05 -4.135903E-14  4.963084E-13
       231  15 -2.594604E+05 -1.707650E+05 -8.604509E+04  2.831176E+05 -4.135903E-14 -2.067952E-13
       231  16 -9.285063E+04 -2.443345E+05 -6.743703E+04  2.934671E+05  0.000000E+00  0.000000E+00
       231  17 -1.612144E+05 -2.008711E+05 -7.241709E+04  3.017806E+05  1.033976E-14 -3.308722E-13
       231  18 -2.528823E+05 -1.765073E+05 -8.587793E+04  2.970604E+05  1.292470E-14 -4.135903E-14
       231  19 -2.211363E+05 -2.128912E+05 -8.680549E+04  2.785644E+05 -8.271806E-14 -4.963084E-13
       231  20 -2.145307E+05 -1.787449E+05 -7.865511E+04  2.833107E+05 -1.499265E-13 -8.271806E-14
       231  21 -2.472703E+05 -1.634372E+05 -8.214149E+04  2.738182E+05 -2.197199E-13  7.237830E-13
       231  22 -1.652392E+05 -2.292463E+05 -7.889709E+04  2.816517E+05 -2.481542E-13  6.617445E-13
       231  23 -1.970741E+05 -1.905284E+05 -7.752049E+04  2.893364E+05  1.447566E-13 -6.617445E-13
       231  24 -2.594604E+05 -1.707650E+05 -8.604509E+04  2.831176E+05 -3.722313E-13  1.902515E-12
       231  25 -9.285063E+04 -2.443345E+05 -6.743703E+04  2.934671E+05 -2.481542E-13  0.000000E+00
       231  26 -1.612144E+05 -2.008711E+05 -7.241709E+04  3.017806E+05 -5.790264E-13 -6.617445E-13
       231  27 -2.528823E+05 -1.765073E+05 -8.587793E+04  2.970604E+05 -2.895132E-13  1.654361E-13
       232   1 -2.939865E+05 -1.472514E+05 -8.824758E+04  2.638687E+05 -5.480072E-13 -5.790264E-13
       232   2 -3.241268E+05 -1.113815E+05 -8.710165E+04  2.568703E+05 -1.395867E-13  4.135903E-13
       232   3 -3.825619E+05 -1.004373E+05 -9.659984E+04  2.327261E+05  3.877409E-15  4.135903E-14
       232   4 -2.576317E+05 -1.457991E+05 -8.068617E+04  2.864493E+05  4.135903E-14  6.617445E-13
       232   5 -2.913784E+05 -1.054449E+05 -7.936467E+04  2.773782E+05  4.135903E-14  8.271806E-13
       232   6 -3.562691E+05 -9.407354E+04 -9.006852E+04  2.496339E+05  1.033976E-14  8.271806E-14
       232   7 -1.886753E+05 -1.399605E+05 -6.572716E+04  3.155575E+05  4.135903E-13  0.000000E+00
       232   8 -2.337603E+05 -9.438535E+04 -6.562912E+04  3.029015E+05  1.240771E-13 -3.308722E-13
       232   9 -3.117836E+05 -8.328554E+04 -7.901382E+04  2.699519E+05  2.067952E-14  0.000000E+00
       232  10 -2.939865E+05 -1.472514E+05 -8.824758E+04  2.638687E+05  0.000000E+00  0.000000E+00
       232  11 -3.241268E+05 -1.113815E+05 -8.710165E+04  2.568703E+05  0.000000E+00 -8.271806E-14
       232  12 -3.825619E+05 -1.004373E+05 -9.659984E+04  2.327261E+05 -7.754818E-15 -1.033976E-14
       232  13 -2.576317E+05 -1.457991E+05 -8.068617E+04  2.864493E+05 -8.271806E-14  0.000000E+00
       232  14 -2.913784E+05 -1.054449E+05 -7.936467E+04  2.773782E+05 -8.271806E-14 -8.271806E-14
       232  15 -3.562691E+05 -9.407354E+04 -9.006852E+04  2.496339E+05  5.169879E-15  0.000000E+00
       232  16 -1.886753E+05 -1.399605E+05 -6.572716E+04  3.155575E+05 -2.067952E-14  0.000000E+00
       232  17 -2.337603E+05 -9.438535E+04 -6.562912E+04  3.029015E+05  1.033976E-14 -4.135903E-14
       232  18 -3.117836E+05 -8.328554E+04 -7.901382E+04  2.699519E+05 -1.292470E-14  1.033976E-14
       232  19 -2.939865E+05 -1.472514E+05 -8.824758E+04  2.638687E+05 -1.137373E-13  5.790264E-13
       232  20 -3.241268E+05 -1.113815E+05 -8.710165E+04  2.568703E+05 -2.584939E-14 -7.444626E-13
       232  21 -3.825619E+05 -1.004373E+05 -9.659984E+04  2.327261E+05 -3.877409E-15  4.135903E-14
       232  22 -2.576317E+05 -1.457991E+05 -8.068617E+04  2.864493E+05 -2.067952E-13 -6.617445E-13
       232  23 -2.913784E+05 -1.054449E+05 -7.936467E+04  2.773782E+05 -4.135903E-14 -1.654361E-13
       232  24 -3.562691E+05 -9.407354E+04 -9.006852E+04  2.496339E+05  1.033976E-14  8.271806E-14
       232  25 -1.886753E+05 -1.399605E+05 -6.572716E+04  3.155575E+05 -2.481542E-13  6.617445E-13
       232  26 -2.337603E+05 -9.438535E+04 -6.562912E+04  3.029015E+05 -4.135903E-14  0.000000E+00
       232  27 -3.117836E+05 -8.328554E+04 -7.901382E+04  2.699519E+05 -2.067952E-14  0.000000E+00
       233   1 -9.682816E+04 -8.392609E+04 -3.615085E+04  3.694519E+05 -4.135903E-14  7.444626E-13
       233   2 -2.033569E+05 -9.430255E+04 -5.953189E+04  3.224617E+05  6.203855E-14 -1.654361E-13
       233   3 -2.933831E+05 -8.489438E+04 -7.565549E+04  2.862367E+05 -5.169879E-15 -8.271806E-14
       233   4 -1.488053E+05 -2.420226E+05 -7.816558E+04  2.644107E+05  3.308722E-13  6.617445E-13
       233   5 -1.103944E+05 -1.437924E+05 -5.083736E+04  3.134413E+05  0.000000E+00  6.617445E-13
       233   6 -7.986392E+04 -4.629380E+04 -2.523154E+04  3.563694E+05  6.203855E-14  4.135903E-14
       233   7  3.874545E+05 -2.600888E+05  2.547315E+04  2.673126E+05 -3.308722E-13  1.985233E-12
       233   8  4.626245E+05 -7.612451E+04  7.729999E+04  3.957135E+05 -6.617445E-13 -3.308722E-13
       233   9  5.279018E+05  9.039310E+04  1.236590E+05  5.037944E+05  4.135903E-14  0.000000E+00
       233  10 -9.682816E+04 -8.392609E+04 -3.615085E+04  3.694519E+05 -1.760990E-14 -8.271806E-14
       233  11 -2.033569E+05 -9.430255E+04 -5.953189E+04  3.224617E+05 -2.423381E-16  8.271806E-14
       233  12 -2.933831E+05 -8.489438E+04 -7.565549E+04  2.862367E+05  1.171301E-15  3.101927E-14
       233  13 -1.488053E+05 -2.420226E+05 -7.816558E+04  2.644107E+05 -1.260158E-14  0.000000E+00
       233  14 -1.103944E+05 -1.437924E+05 -5.083736E+04  3.134413E+05 -3.554292E-15  0.000000E+00
       233  15 -7.986392E+04 -4.629380E+04 -2.523154E+04  3.563694E+05  6.341180E-15 -4.135903E-14
       233  16  3.874545E+05 -2.600888E+05  2.547315E+04  2.673126E+05  6.462349E-16  1.654361E-13
       233  17  4.626245E+05 -7.612451E+04  7.729999E+04  3.957135E+05 -3.231174E-16  0.000000E+00
       233  18  5.279018E+05  9.039310E+04  1.236590E+05  5.037944E+05 -1.393444E-15  8.271806E-14
       233  19 -9.682816E+04 -8.392609E+04 -3.615085E+04  3.694519E+05  4.135903E-14 -8.271806E-14
       233  20 -2.033569E+05 -9.430255E+04 -5.953189E+04  3.224617E+05 -4.135903E-14  1.654361E-13
       233  21 -2.933831E+05 -8.489438E+04 -7.565549E+04  2.862367E+05  5.169879E-15  8.271806E-14
       233  22 -1.488053E+05 -2.420226E+05 -7.816558E+04  2.644107E+05 -3.308722E-13 -6.617445E-13
       233  23 -1.103944E+05 -1.437924E+05 -5.083736E+04  3.134413E+05  0.000000E+00  0.000000E+00
       233  24 -7.986392E+04 -4.629380E+04 -2.523154E+04  3.563694E+05 -6.203855E-14 -4.135903E-14
       233  25  3.874545E+05 -2.600888E+05  2.547315E+04  2.673126E+05  0.000000E+00 -6.617445E-13
       233  26  4.626245E+05 -7.612451E+04  7.729999E+04  3.957135E+05  3.308722E-13  3.308722E-13
       233  27  5.279018E+05  9.039310E+04  1.236590E+05  5.037944E+05 -4.135903E-14  0.000000E+00
       234   1 -6.908141E+04 -2.934460E+05 -7.250549E+04  2.768737E+05  1.654361E-13  3.308722E-13
       234   2 -8.041766E+04 -2.079627E+05 -5.767606E+04  3.173214E+05  8.271806E-14 -1.819797E-12
       234   3 -7.975764E+04 -1.099307E+05 -3.793767E+04  3.654756E+05  1.757759E-13 -3.515518E-13
       234   4 -5.474297E+04 -3.471056E+05 -8.036972E+04  1.935156E+05  9.926167E-13 -1.323489E-12
       234   5 -2.368921E+04 -3.101526E+05 -6.676836E+04  2.326853E+05  3.308722E-13  1.985233E-12
       234   6  2.128484E+04 -2.470547E+05 -4.515396E+04  2.829641E+05  4.135903E-13 -1.406207E-12
       234   7 -2.819861E+04 -3.963073E+05 -8.490117E+04  6.354374E+04  0.000000E+00 -1.323489E-12
       234   8  6.267495E+04 -4.032119E+05 -6.810738E+04  1.146985E+05 -9.926167E-13  0.000000E+00
       234   9  1.652804E+05 -3.718713E+05 -4.131818E+04  1.771772E+05  9.098987E-13 -1.323489E-12
       234  10 -6.908141E+04 -2.934460E+05 -7.250549E+04  2.768737E+05  2.067952E-14  0.000000E+00
       234  11 -8.041766E+04 -2.079627E+05 -5.767606E+04  3.173214E+05  0.000000E+00 -1.654361E-13
       234  12 -7.975764E+04 -1.099307E+05 -3.793767E+04  3.654756E+05  2.326445E-14 -6.203855E-14
       234  13 -5.474297E+04 -3.471056E+05 -8.036972E+04  1.935156E+05  0.000000E+00  0.000000E+00
       234  14 -2.368921E+04 -3.101526E+05 -6.676836E+04  2.326853E+05  6.203855E-14 -6.617445E-13
       234  15  2.128484E+04 -2.470547E+05 -4.515396E+04  2.829641E+05  3.618915E-14  4.549493E-13
       234  16 -2.819861E+04 -3.963073E+05 -8.490117E+04  6.354374E+04  0.000000E+00  1.654361E-13
       234  17  6.267495E+04 -4.032119E+05 -6.810738E+04  1.146985E+05 -1.757759E-13  8.271806E-14
       234  18  1.652804E+05 -3.718713E+05 -4.131818E+04  1.771772E+05  1.033976E-13 -8.271806E-14
       234  19 -6.908141E+04 -2.934460E+05 -7.250549E+04  2.768737E+05 -1.654361E-13 -1.654361E-12
       234  20 -8.041766E+04 -2.079627E+05 -5.767606E+04  3.173214E+05 -8.271806E-14  1.819797E-12
       234  21 -7.975764E+04 -1.099307E+05 -3.793767E+04  3.654756E+05 -1.757759E-13  3.515518E-13
       234  22 -5.474297E+04 -3.471056E+05 -8.036972E+04  1.935156E+05 -1.323489E-12  0.000000E+00
       234  23 -2.368921E+04 -3.101526E+05 -6.676836E+04  2.326853E+05 -3.308722E-13 -1.985233E-12
       234  24  2.128484E+04 -2.470547E+05 -4.515396E+04  2.829641E+05 -4.135903E-13  1.406207E-12
       234  25 -2.819861E+04 -3.963073E+05 -8.490117E+04  6.354374E+04 -6.617445E-13  0.000000E+00
       234  26  6.267495E+04 -4.032119E+05 -6.810738E+04  1.146985E+05  9.926167E-13  0.000000E+00
       234  27  1.652804E+05 -3.718713E+05 -4.131818E+04  1.771772E+05  8.271806E-14  0.000000E+00
       235   1 -4.849326E+05 -3.516252E+05 -1.673116E+05  3.061601E+05 -1.158053E-11 -2.977850E-12
       235   2 -4.690333E+05 -3.518030E+05 -1.641673E+05  2.981720E+05 -9.926167E-12 -3.805031E-12
       235   3 -4.552729E+05 -3.503973E+05 -1.611340E+05  2.893010E+05 -4.797648E-12  7.527344E-12
       235   4 -4.949059E+05 -3.290963E+05 -1.648004E+05  2.854256E+05 -7.940934E-12  1.323489E-12
       235   5 -4.801528E+05 -3.294366E+05 -1.619179E+05  2.814712E+05 -2.646978E-12 -3.970467E-12
       235   6 -4.671846E+05 -3.280358E+05 -1.590441E+05  2.772335E+05  2.316106E-12  2.150670E-12
       235   7 -5.061442E+05 -3.093287E+05 -1.630946E+05  2.659856E+05  1.058791E-11  0.000000E+00
       235   8 -4.919395E+05 -3.098757E+05 -1.603630E+05  2.659275E+05 -5.293956E-12 -2.646978E-12
       235   9 -4.791315E+05 -3.085175E+05 -1.575298E+05  2.661719E+05 -3.308722E-12  4.963084E-12
       235  10 -4.849326E+05 -3.516252E+05 -1.673116E+05  3.061601E+05 -6.617445E-13 -3.308722E-13
       235  11 -4.690333E+05 -3.518030E+05 -1.641673E+05  2.981720E+05 -6.617445E-13  1.654361E-12
       235  12 -4.552729E+05 -3.503973E+05 -1.611340E+05  2.893010E+05  1.323489E-12  7.444626E-13
       235  13 -4.949059E+05 -3.290963E+05 -1.648004E+05  2.854256E+05 -1.323489E-12 -1.323489E-12
       235  14 -4.801528E+05 -3.294366E+05 -1.619179E+05  2.814712E+05  6.617445E-13 -6.617445E-13
       235  15 -4.671846E+05 -3.280358E+05 -1.590441E+05  2.772335E+05 -1.488925E-12 -1.654361E-13
       235  16 -5.061442E+05 -3.093287E+05 -1.630946E+05  2.659856E+05  6.617445E-13  0.000000E+00
       235  17 -4.919395E+05 -3.098757E+05 -1.603630E+05  2.659275E+05 -1.654361E-12  9.926167E-13
       235  18 -4.791315E+05 -3.085175E+05 -1.575298E+05  2.661719E+05  1.158053E-12 -8.271806E-14
       235  19 -4.849326E+05 -3.516252E+05 -1.673116E+05  3.061601E+05  9.926167E-13  3.308722E-13
       235  20 -4.690333E+05 -3.518030E+05 -1.641673E+05  2.981720E+05  4.632211E-12 -6.782881E-12
       235  21 -4.552729E+05 -3.503973E+05 -1.611340E+05  2.893010E+05 -4.963084E-13 -7.527344E-12
       235  22 -4.949059E+05 -3.290963E+05 -1.648004E+05  2.854256E+05  2.646978E-12 -1.323489E-12
       235  23 -4.801528E+05 -3.294366E+05 -1.619179E+05  2.814712E+05  2.646978E-12  1.323489E-12
       235  24 -4.671846E+05 -3.280358E+05 -1.590441E+05  2.772335E+05  8.271806E-12 -4.797648E-12
       235  25 -5.061442E+05 -3.093287E+05 -1.630946E+05  2.659856E+05  0.000000E+00  5.293956E-12
       235  26 -4.919395E+05 -3.098757E+05 -1.603630E+05  2.659275E+05  0.000000E+00  0.000000E+00
       235  27 -4.791315E+05 -3.085175E+05 -1.575298E+05  2.661719E+05  8.602678E-12 -2.316106E-12
       236   1 -4.230107E+05 -3.248419E+05 -1.495705E+05  2.715656E+05 -1.091878E-11  6.617445E-13
       236   2 -4.375342E+05 -3.309953E+05 -1.537059E+05  2.807529E+05 -1.488925E-12  5.459392E-12
       236   3 -4.461193E+05 -3.426861E+05 -1.577611E+05  2.907173E+05  9.512577E-13 -8.271806E-13
       236   4 -4.499541E+05 -3.216276E+05 -1.543163E+05  2.705329E+05  2.646978E-12  3.970467E-12
       236   5 -4.529995E+05 -3.288896E+05 -1.563778E+05  2.734549E+05 -2.646978E-12  1.985233E-12
       236   6 -4.492540E+05 -3.453381E+05 -1.589184E+05  2.765803E+05 -7.279189E-12  4.963084E-12
       236   7 -4.732784E+05 -3.126921E+05 -1.571941E+05  2.665374E+05 -5.293956E-12  5.293956E-12
       236   8 -4.645424E+05 -3.202132E+05 -1.569511E+05  2.625522E+05 -2.646978E-12  2.646978E-12
       236   9 -4.464174E+05 -3.389652E+05 -1.570765E+05  2.567853E+05 -1.025704E-11 -3.308722E-13
       236  10 -4.230107E+05 -3.248419E+05 -1.495705E+05  2.715656E+05  3.308722E-13  0.000000E+00
       236  11 -4.375342E+05 -3.309953E+05 -1.537059E+05  2.807529E+05  0.000000E+00 -1.654361E-13
       236  12 -4.461193E+05 -3.426861E+05 -1.577611E+05  2.907173E+05 -4.135903E-14  4.549493E-13
       236  13 -4.499541E+05 -3.216276E+05 -1.543163E+05  2.705329E+05  1.323489E-12 -6.617445E-13
       236  14 -4.529995E+05 -3.288896E+05 -1.563778E+05  2.734549E+05  6.617445E-13  0.000000E+00
       236  15 -4.492540E+05 -3.453381E+05 -1.589184E+05  2.765803E+05  4.963084E-13  3.308722E-13
       236  16 -4.732784E+05 -3.126921E+05 -1.571941E+05  2.665374E+05 -3.308722E-13  0.000000E+00
       236  17 -4.645424E+05 -3.202132E+05 -1.569511E+05  2.625522E+05  6.617445E-13  8.271806E-13
       236  18 -4.464174E+05 -3.389652E+05 -1.570765E+05  2.567853E+05 -1.240771E-13  3.722313E-13
       236  19 -4.230107E+05 -3.248419E+05 -1.495705E+05  2.715656E+05  5.624828E-12 -6.617445E-13
       236  20 -4.375342E+05 -3.309953E+05 -1.537059E+05  2.807529E+05  6.782881E-12 -2.812414E-12
       236  21 -4.461193E+05 -3.426861E+05 -1.577611E+05  2.907173E+05  9.636654E-12 -7.113753E-12
       236  22 -4.499541E+05 -3.216276E+05 -1.543163E+05  2.705329E+05  7.940934E-12  1.323489E-12
       236  23 -4.529995E+05 -3.288896E+05 -1.563778E+05  2.734549E+05  2.646978E-12 -4.632211E-12
       236  24 -4.492540E+05 -3.453381E+05 -1.589184E+05  2.765803E+05  4.632211E-12 -4.963084E-12
       236  25 -4.732784E+05 -3.126921E+05 -1.571941E+05  2.665374E+05  5.293956E-12 -2.646978E-12
       236  26 -4.645424E+05 -3.202132E+05 -1.569511E+05  2.625522E+05  2.646978E-12 -5.293956E-12
       236  27 -4.464174E+05 -3.389652E+05 -1.570765E+05  2.567853E+05  2.316106E-12  3.308722E-13
       237   1 -4.805526E+05 -3.090229E+05 -1.579151E+05  2.586425E+05 -5.955700E-12  9.264423E-12
       237   2 -4.618617E+05 -3.169814E+05 -1.557686E+05  2.538105E+05 -4.135903E-12  2.977850E-12
       237   3 -4.481428E+05 -3.301948E+05 -1.556675E+05  2.457639E+05 -5.004443E-12  2.895132E-12
       237   4 -4.899684E+05 -2.940020E+05 -1.567941E+05  2.439363E+05  0.000000E+00  0.000000E+00
       237   5 -4.722666E+05 -3.015490E+05 -1.547631E+05  2.397339E+05 -1.323489E-12  3.970467E-12
       237   6 -4.585485E+05 -3.136866E+05 -1.544470E+05  2.325913E+05 -1.654361E-13 -8.271806E-13
       237   7 -5.008706E+05 -2.795606E+05 -1.560862E+05  2.299766E+05 -7.940934E-12  2.646978E-12
       237   8 -4.836230E+05 -2.865546E+05 -1.540355E+05  2.262186E+05  0.000000E+00  5.293956E-12
       237   9 -4.693648E+05 -2.975227E+05 -1.533775E+05  2.197173E+05 -1.389663E-11  6.617445E-12
       237  10 -4.805526E+05 -3.090229E+05 -1.579151E+05  2.586425E+05  6.617445E-13  3.308722E-13
       237  11 -4.618617E+05 -3.169814E+05 -1.557686E+05  2.538105E+05  0.000000E+00 -3.308722E-13
       237  12 -4.481428E+05 -3.301948E+05 -1.556675E+05  2.457639E+05  2.067952E-13  0.000000E+00
       237  13 -4.899684E+05 -2.940020E+05 -1.567941E+05  2.439363E+05  0.000000E+00 -6.617445E-13
       237  14 -4.722666E+05 -3.015490E+05 -1.547631E+05  2.397339E+05 -3.970467E-12  3.308722E-13
       237  15 -4.585485E+05 -3.136866E+05 -1.544470E+05  2.325913E+05  6.617445E-13 -4.135903E-13
       237  16 -5.008706E+05 -2.795606E+05 -1.560862E+05  2.299766E+05  0.000000E+00  6.617445E-13
       237  17 -4.836230E+05 -2.865546E+05 -1.540355E+05  2.262186E+05 -6.617445E-13  3.308722E-13
       237  18 -4.693648E+05 -2.975227E+05 -1.533775E+05  2.197173E+05 -2.067952E-13  4.135903E-13
       237  19 -4.805526E+05 -3.090229E+05 -1.579151E+05  2.586425E+05  5.955700E-12 -6.617445E-12
       237  20 -4.618617E+05 -3.169814E+05 -1.557686E+05  2.538105E+05  6.782881E-12 -5.624828E-12
       237  21 -4.481428E+05 -3.301948E+05 -1.556675E+05  2.457639E+05  5.004443E-12 -8.189088E-12
       237  22 -4.899684E+05 -2.940020E+05 -1.567941E+05  2.439363E+05  0.000000E+00  0.000000E+00
       237  23 -4.722666E+05 -3.015490E+05 -1.547631E+05  2.397339E+05  1.323489E-12 -3.970467E-12
       237  24 -4.585485E+05 -3.136866E+05 -1.544470E+05  2.325913E+05  8.106370E-12 -1.819797E-12
       237  25 -5.008706E+05 -2.795606E+05 -1.560862E+05  2.299766E+05  7.940934E-12 -2.646978E-12
       237  26 -4.836230E+05 -2.865546E+05 -1.540355E+05  2.262186E+05  0.000000E+00  0.000000E+00
       237  27 -4.693648E+05 -2.975227E+05 -1.533775E+05  2.197173E+05  1.124966E-11 -6.617445E-12
       238   1 -5.105076E+05 -2.988462E+05 -1.618708E+05  2.568707E+05 -8.602678E-12  3.308722E-12
       238   2 -4.995015E+05 -3.001441E+05 -1.599291E+05  2.571866E+05 -5.624828E-12  6.617445E-13
       238   3 -4.881628E+05 -3.015012E+05 -1.579328E+05  2.575484E+05 -7.237830E-12  3.267363E-12
       238   4 -5.180348E+05 -2.831556E+05 -1.602381E+05  2.430901E+05  0.000000E+00  3.970467E-12
       238   5 -5.083110E+05 -2.856168E+05 -1.587856E+05  2.434015E+05 -2.646978E-12 -1.323489E-12
       238   6 -4.982147E+05 -2.882126E+05 -1.572855E+05  2.437151E+05 -8.271806E-12 -5.128520E-12
       238   7 -5.272134E+05 -2.680209E+05 -1.590468E+05  2.299659E+05 -5.293956E-12  2.646978E-12
       238   8 -5.186476E+05 -2.715442E+05 -1.580384E+05  2.302510E+05 -5.293956E-12  0.000000E+00
       238   9 -5.096574E+05 -2.752605E+05 -1.569836E+05  2.304949E+05 -7.610062E-12  3.970467E-12
       238  10 -5.105076E+05 -2.988462E+05 -1.618708E+05  2.568707E+05  1.323489E-12  0.000000E+00
       238  11 -4.995015E+05 -3.001441E+05 -1.599291E+05  2.571866E+05 -3.308722E-13 -1.654361E-13
       238  12 -4.881628E+05 -3.015012E+05 -1.579328E+05  2.575484E+05  0.000000E+00 -2.481542E-13
       238  13 -5.180348E+05 -2.831556E+05 -1.602381E+05  2.430901E+05  1.323489E-12  0.000000E+00
       238  14 -5.083110E+05 -2.856168E+05 -1.587856E+05  2.434015E+05  1.323489E-12  0.000000E+00
       238  15 -4.982147E+05 -2.882126E+05 -1.572855E+05  2.437151E+05 -1.654361E-13  4.963084E-13
       238  16 -5.272134E+05 -2.680209E+05 -1.590468E+05  2.299659E+05 -6.617445E-13 -3.308722E-13
       238  17 -5.186476E+05 -2.715442E+05 -1.580384E+05  2.302510E+05 -3.308722E-13 -1.323489E-12
       238  18 -5.096574E+05 -2.752605E+05 -1.569836E+05  2.304949E+05 -4.963084E-13 -5.376674E-13
       238  19 -5.105076E+05 -2.988462E+05 -1.618708E+05  2.568707E+05 -1.985233E-12 -8.602678E-12
       238  20 -4.995015E+05 -3.001441E+05 -1.599291E+05  2.571866E+05  1.091878E-11 -6.617445E-13
       238  21 -4.881628E+05 -3.015012E+05 -1.579328E+05  2.575484E+05  7.237830E-12 -5.914341E-12
       238  22 -5.180348E+05 -2.831556E+05 -1.602381E+05  2.430901E+05 -5.293956E-12 -1.323489E-12
       238  23 -5.083110E+05 -2.856168E+05 -1.587856E+05  2.434015E+05  2.646978E-12  1.323489E-12
       238  24 -4.982147E+05 -2.882126E+05 -1.572855E+05  2.437151E+05  2.977850E-12 -1.654361E-13
       238  25 -5.272134E+05 -2.680209E+05 -1.590468E+05  2.299659E+05  0.000000E+00  2.646978E-12
       238  26 -5.186476E+05 -2.715442E+05 -1.580384E+05  2.302510E+05  5.293956E-12  2.646978E-12
       238  27 -5.096574E+05 -2.752605E+05 -1.569836E+05  2.304949E+05  4.963084E-12 -3.970467E-12
       239   1 -1.805026E+05 -1.047904E+05 -5.705860E+04  3.262168E+04 -7.858216E-13  1.799118E-12
       239   2 -1.824588E+05 -1.098231E+05 -5.845637E+04  3.612033E+04 -4.963084E-13  1.819797E-12
       239   3 -1.845225E+05 -1.148625E+05 -5.987700E+04  3.963643E+04 -8.323505E-13  1.956799E-12
       239   4 -1.721103E+05 -1.091511E+05 -5.625230E+04  2.979520E+04 -6.617445E-13  1.571643E-12
       239   5 -1.741294E+05 -1.132916E+05 -5.748422E+04  3.300229E+04  4.963084E-13  0.000000E+00
       239   6 -1.762743E+05 -1.175206E+05 -5.875898E+04  3.608996E+04 -8.271806E-13  2.150670E-12
       239   7 -1.635175E+05 -1.130705E+05 -5.531760E+04  2.677061E+04 -6.617445E-13  2.233388E-12
       239   8 -1.654590E+05 -1.160116E+05 -5.629413E+04  2.962119E+04 -3.308722E-13  1.571643E-12
       239   9 -1.675163E+05 -1.190746E+05 -5.731817E+04  3.215521E+04  3.308722E-13  1.737079E-12
       239  10 -1.805026E+05 -1.047904E+05 -5.705860E+04  3.262168E+04 -4.135903E-14  0.000000E+00
       239  11 -1.824588E+05 -1.098231E+05 -5.845637E+04  3.612033E+04  2.067952E-14  2.067952E-14
       239  12 -1.845225E+05 -1.148625E+05 -5.987700E+04  3.963643E+04  1.033976E-14  1.292470E-14
       239  13 -1.721103E+05 -1.091511E+05 -5.625230E+04  2.979520E+04  1.654361E-13 -8.271806E-14
       239  14 -1.741294E+05 -1.132916E+05 -5.748422E+04  3.300229E+04 -1.654361E-13 -2.067952E-14
       239  15 -1.762743E+05 -1.175206E+05 -5.875898E+04  3.608996E+04 -1.550964E-13 -5.169879E-14
       239  16 -1.635175E+05 -1.130705E+05 -5.531760E+04  2.677061E+04  4.135903E-14  0.000000E+00
       239  17 -1.654590E+05 -1.160116E+05 -5.629413E+04  2.962119E+04  0.000000E+00 -2.067952E-14
       239  18 -1.675163E+05 -1.190746E+05 -5.731817E+04  3.215521E+04 -4.135903E-14 -3.360421E-14
       239  19 -1.805026E+05 -1.047904E+05 -5.705860E+04  3.262168E+04  4.549493E-13 -1.633682E-12
       239  20 -1.824588E+05 -1.098231E+05 -5.845637E+04  3.612033E+04  4.963084E-13 -1.654361E-12
       239  21 -1.845225E+05 -1.148625E+05 -5.987700E+04  3.963643E+04  5.014782E-13 -1.956799E-12
       239  22 -1.721103E+05 -1.091511E+05 -5.625230E+04  2.979520E+04  3.308722E-13 -1.571643E-12
       239  23 -1.741294E+05 -1.132916E+05 -5.748422E+04  3.300229E+04 -4.963084E-13 -1.654361E-13
       239  24 -1.762743E+05 -1.175206E+05 -5.875898E+04  3.608996E+04  1.158053E-12 -1.819797E-12
       239  25 -1.635175E+05 -1.130705E+05 -5.531760E+04  2.677061E+04  6.617445E-13 -1.902515E-12
       239  26 -1.654590E+05 -1.160116E+05 -5.629413E+04  2.962119E+04  3.308722E-13 -1.902515E-12
       239  27 -1.675163E+05 -1.190746E+05 -5.731817E+04  3.215521E+04  0.000000E+00 -2.233388E-12
       240   1 -1.837759E+05 -1.181104E+05 -6.037727E+04  4.123628E+04 -3.308722E-13  2.109311E-12
       240   2 -1.812863E+05 -1.269023E+05 -6.163772E+04  4.424201E+04 -1.178732E-12  2.202368E-12
       240   3 -1.796797E+05 -1.355197E+05 -6.303988E+04  4.723829E+04 -2.021423E-12  2.401409E-12
       240   4 -1.748393E+05 -1.192404E+05 -5.881594E+04  3.660941E+04 -9.926167E-13  2.067952E-12
       240   5 -1.719568E+05 -1.261156E+05 -5.961446E+04  3.817379E+04 -3.308722E-13  0.000000E+00
       240   6 -1.690705E+05 -1.333010E+05 -6.047430E+04  3.963684E+04 -7.651421E-13  1.974894E-12
       240   7 -1.677018E+05 -1.223797E+05 -5.801632E+04  3.312506E+04 -1.654361E-12  2.481542E-12
       240   8 -1.627584E+05 -1.254526E+05 -5.764219E+04  3.218643E+04 -1.488925E-12  2.398824E-12
       240   9 -1.572653E+05 -1.303591E+05 -5.752488E+04  3.147907E+04 -1.199412E-12  2.398824E-12
       240  10 -1.837759E+05 -1.181104E+05 -6.037727E+04  4.123628E+04  0.000000E+00  0.000000E+00
       240  11 -1.812863E+05 -1.269023E+05 -6.163772E+04  4.424201E+04  0.000000E+00  2.067952E-14
       240  12 -1.796797E+05 -1.355197E+05 -6.303988E+04  4.723829E+04 -2.067952E-14  1.809458E-14
       240  13 -1.748393E+05 -1.192404E+05 -5.881594E+04  3.660941E+04 -8.271806E-14  4.135903E-14
       240  14 -1.719568E+05 -1.261156E+05 -5.961446E+04  3.817379E+04  2.481542E-13  4.135903E-14
       240  15 -1.690705E+05 -1.333010E+05 -6.047430E+04  3.963684E+04 -2.791735E-13 -9.305782E-14
       240  16 -1.677018E+05 -1.223797E+05 -5.801632E+04  3.312506E+04 -4.135903E-14 -2.067952E-14
       240  17 -1.627584E+05 -1.254526E+05 -5.764219E+04  3.218643E+04  4.135903E-14 -2.067952E-14
       240  18 -1.572653E+05 -1.303591E+05 -5.752488E+04  3.147907E+04 -2.067952E-14  2.326445E-14
       240  19 -1.837759E+05 -1.181104E+05 -6.037727E+04  4.123628E+04  6.617445E-13 -1.943874E-12
       240  20 -1.812863E+05 -1.269023E+05 -6.163772E+04  4.424201E+04  1.178732E-12 -1.871496E-12
       240  21 -1.796797E+05 -1.355197E+05 -6.303988E+04  4.723829E+04  2.352295E-12 -3.063153E-12
       240  22 -1.748393E+05 -1.192404E+05 -5.881594E+04  3.660941E+04  1.654361E-12 -1.737079E-12
       240  23 -1.719568E+05 -1.261156E+05 -5.961446E+04  3.817379E+04  0.000000E+00 -3.308722E-13
       240  24 -1.690705E+05 -1.333010E+05 -6.047430E+04  3.963684E+04  1.033976E-13 -2.636638E-12
       240  25 -1.677018E+05 -1.223797E+05 -5.801632E+04  3.312506E+04  1.654361E-12 -2.481542E-12
       240  26 -1.627584E+05 -1.254526E+05 -5.764219E+04  3.218643E+04  1.488925E-12 -2.067952E-12
       240  27 -1.572653E+05 -1.303591E+05 -5.752488E+04  3.147907E+04  1.199412E-12 -2.398824E-12
       241   1 -1.584014E+05 -1.153253E+05 -5.474533E+04  2.496753E+04 -6.617445E-13  2.564260E-12
       241   2 -1.616356E+05 -1.181297E+05 -5.595306E+04  2.820242E+04  3.101927E-13  2.026593E-12
       241   3 -1.649436E+05 -1.209211E+05 -5.717294E+04  3.167537E+04 -1.323489E-12  2.429843E-12
       241   4 -1.507075E+05 -1.185466E+05 -5.385081E+04  2.231251E+04 -1.158053E-12  2.233388E-12
       241   5 -1.545830E+05 -1.217285E+05 -5.526231E+04  2.585391E+04 -8.271806E-13  3.722313E-13
       241   6 -1.585840E+05 -1.249697E+05 -5.671075E+04  2.964175E+04 -3.929108E-13  2.202368E-12
       241   7 -1.425731E+05 -1.205226E+05 -5.261915E+04  1.930961E+04 -1.323489E-12  2.233388E-12
       241   8 -1.472614E+05 -1.241715E+05 -5.428658E+04  2.327775E+04 -9.926167E-13  2.067952E-12
       241   9 -1.521442E+05 -1.279453E+05 -5.601791E+04  2.752271E+04 -7.444626E-13  2.502221E-12
       241  10 -1.584014E+05 -1.153253E+05 -5.474533E+04  2.496753E+04  0.000000E+00  0.000000E+00
       241  11 -1.616356E+05 -1.181297E+05 -5.595306E+04  2.820242E+04 -2.067952E-14  3.101927E-14
       241  12 -1.649436E+05 -1.209211E+05 -5.717294E+04  3.167537E+04 -2.067952E-14  7.754818E-15
       241  13 -1.507075E+05 -1.185466E+05 -5.385081E+04  2.231251E+04 -8.271806E-14  0.000000E+00
       241  14 -1.545830E+05 -1.217285E+05 -5.526231E+04  2.585391E+04  0.000000E+00 -4.135903E-14
       241  15 -1.585840E+05 -1.249697E+05 -5.671075E+04  2.964175E+04  2.067952E-14 -4.135903E-14
       241  16 -1.425731E+05 -1.205226E+05 -5.261915E+04  1.930961E+04  0.000000E+00  0.000000E+00
       241  17 -1.472614E+05 -1.241715E+05 -5.428658E+04  2.327775E+04 -1.654361E-13 -3.101927E-14
       241  18 -1.521442E+05 -1.279453E+05 -5.601791E+04  2.752271E+04 -6.720842E-14 -4.911385E-14
       241  19 -1.584014E+05 -1.153253E+05 -5.474533E+04  2.496753E+04  6.617445E-13 -2.233388E-12
       241  20 -1.616356E+05 -1.181297E+05 -5.595306E+04  2.820242E+04  6.824240E-13 -2.026593E-12
       241  21 -1.649436E+05 -1.209211E+05 -5.717294E+04  3.167537E+04  1.654361E-12 -2.429843E-12
       241  22 -1.507075E+05 -1.185466E+05 -5.385081E+04  2.231251E+04  1.158053E-12 -2.067952E-12
       241  23 -1.545830E+05 -1.217285E+05 -5.526231E+04  2.585391E+04  8.271806E-13 -4.135903E-14
       241  24 -1.585840E+05 -1.249697E+05 -5.671075E+04  2.964175E+04  1.054655E-12 -2.036932E-12
       241  25 -1.425731E+05 -1.205226E+05 -5.261915E+04  1.930961E+04  1.323489E-12 -2.398824E-12
       241  26 -1.472614E+05 -1.241715E+05 -5.428658E+04  2.327775E+04  1.323489E-12 -2.398824E-12
       241  27 -1.521442E+05 -1.279453E+05 -5.601791E+04  2.752271E+04  4.135903E-13 -2.336785E-12
       242   1 -1.054190E+05 -1.035371E+05 -4.179121E+04  2.630389E+03 -2.171349E-12  2.502221E-12
       242   2 -1.036908E+05 -1.029197E+05 -4.132210E+04  1.767365E+03 -1.980064E-12  2.339370E-12
       242   3 -1.028338E+05 -1.018064E+05 -4.092805E+04  8.808359E+02 -2.204953E-12  2.648270E-12
       242   4 -1.085836E+05 -1.002026E+05 -4.175723E+04  1.150256E+03 -1.654361E-12  2.192029E-12
       242   5 -1.065983E+05 -1.006016E+05 -4.143998E+04  7.592610E+02 -8.271806E-14 -4.135903E-14
       242   6 -1.047019E+05 -1.008993E+05 -4.112024E+04  4.313171E+02 -1.855986E-12  2.329030E-12
       242   7 -1.122104E+05 -9.724642E+04 -4.189137E+04 -6.952635E+01 -1.985233E-12  2.192029E-12
       242   8 -1.094815E+05 -9.823584E+04 -4.154346E+04 -2.681805E+02 -1.778438E-12  2.129990E-12
       242   9 -1.058069E+05 -9.915430E+04 -4.099225E+04 -5.334335E+02 -2.005913E-12  2.321276E-12
       242  10 -1.054190E+05 -1.035371E+05 -4.179121E+04  2.630389E+03  0.000000E+00 -2.067952E-14
       242  11 -1.036908E+05 -1.029197E+05 -4.132210E+04  1.767365E+03 -4.135903E-14  0.000000E+00
       242  12 -1.028338E+05 -1.018064E+05 -4.092805E+04  8.808359E+02  0.000000E+00 -1.938705E-14
       242  13 -1.085836E+05 -1.002026E+05 -4.175723E+04  1.150256E+03  4.135903E-14  0.000000E+00
       242  14 -1.065983E+05 -1.006016E+05 -4.143998E+04  7.592610E+02 -6.203855E-14  4.135903E-14
       242  15 -1.047019E+05 -1.008993E+05 -4.112024E+04  4.313171E+02  1.550964E-14 -1.809458E-14
       242  16 -1.122104E+05 -9.724642E+04 -4.189137E+04 -6.952635E+01  2.067952E-14  0.000000E+00
       242  17 -1.094815E+05 -9.823584E+04 -4.154346E+04 -2.681805E+02  4.135903E-14  1.033976E-14
       242  18 -1.058069E+05 -9.915430E+04 -4.099225E+04 -5.334335E+02 -2.584939E-15 -1.292470E-14
       242  19 -1.054190E+05 -1.035371E+05 -4.179121E+04  2.630389E+03  2.171349E-12 -2.502221E-12
       242  20 -1.036908E+05 -1.029197E+05 -4.132210E+04  1.767365E+03  1.980064E-12 -2.256652E-12
       242  21 -1.028338E+05 -1.018064E+05 -4.092805E+04  8.808359E+02  2.122235E-12 -2.648270E-12
       242  22 -1.085836E+05 -1.002026E+05 -4.175723E+04  1.150256E+03  1.819797E-12 -2.192029E-12
       242  23 -1.065983E+05 -1.006016E+05 -4.143998E+04  7.592610E+02  0.000000E+00  4.135903E-14
       242  24 -1.047019E+05 -1.008993E+05 -4.112024E+04  4.313171E+02  1.855986E-12 -2.163594E-12
       242  25 -1.122104E+05 -9.724642E+04 -4.189137E+04 -6.952635E+01  1.985233E-12 -2.192029E-12
       242  26 -1.094815E+05 -9.823584E+04 -4.154346E+04 -2.681805E+02  1.613002E-12 -2.129990E-12
       242  27 -1.058069E+05 -9.915430E+04 -4.099225E+04 -5.334335E+02  2.088631E-12 -2.321276E-12
       243   1 -1.028480E+05 -1.017310E+05 -4.091580E+04  6.553817E+02 -2.192029E-12  2.584939E-12
       243   2 -1.021160E+05 -1.013939E+05 -4.070197E+04  2.466619E+02 -1.881836E-12  2.228218E-12
       243   3 -1.015531E+05 -1.010953E+05 -4.052968E+04 -2.277492E+02 -2.294134E-12  2.627591E-12
       243   4 -1.037352E+05 -1.005215E+05 -4.085135E+04 -1.152945E+02 -2.109311E-12  2.274747E-12
       243   5 -1.036036E+05 -1.000946E+05 -4.073965E+04 -6.883691E+02  4.135903E-14  2.688337E-13
       243   6 -1.033906E+05 -9.967002E+04 -4.061212E+04 -1.225002E+03 -1.933535E-12  2.192029E-12
       243   7 -1.050000E+05 -9.943064E+04 -4.088612E+04 -6.877751E+02 -2.150670E-12  2.316106E-12
       243   8 -1.052091E+05 -9.881900E+04 -4.080563E+04 -1.595656E+03 -1.902515E-12  2.067952E-12
       243   9 -1.050775E+05 -9.819398E+04 -4.065430E+04 -2.257404E+03 -2.171349E-12  2.326445E-12
       243  10 -1.028480E+05 -1.017310E+05 -4.091580E+04  6.553817E+02  0.000000E+00  0.000000E+00
       243  11 -1.021160E+05 -1.013939E+05 -4.070197E+04  2.466619E+02 -1.033976E-14 -5.169879E-15
       243  12 -1.015531E+05 -1.010953E+05 -4.052968E+04 -2.277492E+02  6.462349E-15 -1.680211E-14
       243  13 -1.037352E+05 -1.005215E+05 -4.085135E+04 -1.152945E+02 -2.067952E-14  0.000000E+00
       243  14 -1.036036E+05 -1.000946E+05 -4.073965E+04 -6.883691E+02  0.000000E+00  4.135903E-14
       243  15 -1.033906E+05 -9.967002E+04 -4.061212E+04 -1.225002E+03 -7.754818E-15 -4.394397E-14
       243  16 -1.050000E+05 -9.943064E+04 -4.088612E+04 -6.877751E+02  0.000000E+00  1.033976E-14
       243  17 -1.052091E+05 -9.881900E+04 -4.080563E+04 -1.595656E+03  1.033976E-14  0.000000E+00
       243  18 -1.050775E+05 -9.819398E+04 -4.065430E+04 -2.257404E+03 -1.292470E-15  1.292470E-15
       243  19 -1.028480E+05 -1.017310E+05 -4.091580E+04  6.553817E+02  2.357465E-12 -2.336785E-12
       243  20 -1.021160E+05 -1.013939E+05 -4.070197E+04  2.466619E+02  1.964554E-12 -2.228218E-12
       243  21 -1.015531E+05 -1.010953E+05 -4.052968E+04 -2.277492E+02  2.294134E-12 -2.462155E-12
       243  22 -1.037352E+05 -1.005215E+05 -4.085135E+04 -1.152945E+02  1.861156E-12 -2.274747E-12
       243  23 -1.036036E+05 -1.000946E+05 -4.073965E+04 -6.883691E+02  1.240771E-13  6.203855E-14
       243  24 -1.033906E+05 -9.967002E+04 -4.061212E+04 -1.225002E+03  2.016253E-12 -2.192029E-12
       243  25 -1.050000E+05 -9.943064E+04 -4.088612E+04 -6.877751E+02  2.150670E-12 -2.398824E-12
       243  26 -1.052091E+05 -9.881900E+04 -4.080563E+04 -1.595656E+03  1.985233E-12 -2.067952E-12
       243  27 -1.050775E+05 -9.819398E+04 -4.065430E+04 -2.257404E+03  2.088631E-12 -2.326445E-12
       244   1 -1.134668E+05 -9.592819E+04 -4.187899E+04 -8.205288E+02 -1.406207E-12  2.223048E-12
       244   2 -1.098475E+05 -9.708953E+04 -4.138741E+04 -1.007942E+03 -1.793948E-12  2.065367E-12
       244   3 -1.067671E+05 -9.836612E+04 -4.102663E+04 -1.216258E+03 -1.990403E-12  2.235326E-12
       244   4 -1.134573E+05 -9.416851E+04 -4.152517E+04 -2.661019E+03 -1.323489E-12  1.964554E-12
       244   5 -1.097254E+05 -9.575220E+04 -4.109551E+04 -2.475475E+03 -4.963084E-13 -8.271806E-14
       244   6 -1.065765E+05 -9.743603E+04 -4.080250E+04 -2.144524E+03 -1.949044E-12  2.021423E-12
       244   7 -1.134291E+05 -9.218455E+04 -4.112272E+04 -4.489389E+03 -1.654361E-12  2.109311E-12
       244   8 -1.096128E+05 -9.439754E+04 -4.080206E+04 -3.951087E+03 -1.737079E-12  1.923195E-12
       244   9 -1.064429E+05 -9.682151E+04 -4.065288E+04 -3.106941E+03 -2.057612E-12  2.264407E-12
       244  10 -1.134668E+05 -9.592819E+04 -4.187899E+04 -8.205288E+02 -1.033976E-14  0.000000E+00
       244  11 -1.098475E+05 -9.708953E+04 -4.138741E+04 -1.007942E+03  1.550964E-14  1.033976E-14
       244  12 -1.067671E+05 -9.836612E+04 -4.102663E+04 -1.216258E+03  5.169879E-15 -9.693523E-15
       244  13 -1.134573E+05 -9.416851E+04 -4.152517E+04 -2.661019E+03  0.000000E+00  0.000000E+00
       244  14 -1.097254E+05 -9.575220E+04 -4.109551E+04 -2.475475E+03  2.067952E-14 -2.067952E-14
       244  15 -1.065765E+05 -9.743603E+04 -4.080250E+04 -2.144524E+03 -2.067952E-14 -2.326445E-14
       244  16 -1.134291E+05 -9.218455E+04 -4.112272E+04 -4.489389E+03  1.033976E-14  0.000000E+00
       244  17 -1.096128E+05 -9.439754E+04 -4.080206E+04 -3.951087E+03 -2.067952E-14  3.101927E-14
       244  18 -1.064429E+05 -9.682151E+04 -4.065288E+04 -3.106941E+03  6.462349E-15 -2.584939E-15
       244  19 -1.134668E+05 -9.592819E+04 -4.187899E+04 -8.205288E+02  1.737079E-12 -2.223048E-12
       244  20 -1.098475E+05 -9.708953E+04 -4.138741E+04 -1.007942E+03  1.711230E-12 -2.065367E-12
       244  21 -1.067671E+05 -9.836612E+04 -4.102663E+04 -1.216258E+03  1.990403E-12 -2.400762E-12
       244  22 -1.134573E+05 -9.416851E+04 -4.152517E+04 -2.661019E+03  1.406207E-12 -1.964554E-12
       244  23 -1.097254E+05 -9.575220E+04 -4.109551E+04 -2.475475E+03  0.000000E+00  1.654361E-13
       244  24 -1.065765E+05 -9.743603E+04 -4.080250E+04 -2.144524E+03  1.618172E-12 -2.104141E-12
       244  25 -1.134291E+05 -9.218455E+04 -4.112272E+04 -4.489389E+03  1.654361E-12 -2.026593E-12
       244  26 -1.096128E+05 -9.439754E+04 -4.080206E+04 -3.951087E+03  1.571643E-12 -1.840477E-12
       244  27 -1.064429E+05 -9.682151E+04 -4.065288E+04 -3.106941E+03  2.140330E-12 -2.347125E-12
       245   1 -2.783604E+05 -2.223999E+05 -1.001521E+05  1.773015E+05 -2.150670E-12  4.466775E-12
       245   2 -2.739520E+05 -2.248522E+05 -9.976084E+04  1.655402E+05 -1.654361E-12 -3.970467E-12
       245   3 -2.671792E+05 -2.232081E+05 -9.807746E+04  1.515762E+05  5.790264E-13  2.502221E-12
       245   4 -3.070154E+05 -2.109939E+05 -1.036018E+05  1.726784E+05  0.000000E+00  0.000000E+00
       245   5 -2.997655E+05 -2.158998E+05 -1.031331E+05  1.632999E+05  9.926167E-13 -6.617445E-12
       245   6 -2.915847E+05 -2.176488E+05 -1.018467E+05  1.531582E+05  5.128520E-12 -5.293956E-12
       245   7 -3.388572E+05 -2.004828E+05 -1.078680E+05  1.684889E+05  1.323489E-12  0.000000E+00
       245   8 -3.261119E+05 -2.070747E+05 -1.066373E+05  1.610568E+05  1.985233E-12 -2.646978E-12
       245   9 -3.123714E+05 -2.112312E+05 -1.047205E+05  1.545483E+05  1.654361E-13  3.308722E-12
       245  10 -2.783604E+05 -2.223999E+05 -1.001521E+05  1.773015E+05  0.000000E+00 -3.308722E-13
       245  11 -2.739520E+05 -2.248522E+05 -9.976084E+04  1.655402E+05  0.000000E+00 -1.654361E-13
       245  12 -2.671792E+05 -2.232081E+05 -9.807746E+04  1.515762E+05  2.067952E-14 -4.135903E-14
       245  13 -3.070154E+05 -2.109939E+05 -1.036018E+05  1.726784E+05 -3.308722E-13 -6.617445E-13
       245  14 -2.997655E+05 -2.158998E+05 -1.031331E+05  1.632999E+05  4.963084E-13 -6.617445E-13
       245  15 -2.915847E+05 -2.176488E+05 -1.018467E+05  1.531582E+05  2.481542E-13 -5.790264E-13
       245  16 -3.388572E+05 -2.004828E+05 -1.078680E+05  1.684889E+05 -4.963084E-13  3.308722E-13
       245  17 -3.261119E+05 -2.070747E+05 -1.066373E+05  1.610568E+05 -4.135903E-13  9.926167E-13
       245  18 -3.123714E+05 -2.112312E+05 -1.047205E+05  1.545483E+05 -8.271806E-14 -4.963084E-13
       245  19 -2.783604E+05 -2.223999E+05 -1.001521E+05  1.773015E+05 -4.963084E-13 -4.466775E-12
       245  20 -2.739520E+05 -2.248522E+05 -9.976084E+04  1.655402E+05  3.308722E-13  1.323489E-12
       245  21 -2.671792E+05 -2.232081E+05 -9.807746E+04  1.515762E+05 -5.790264E-13  1.447566E-13
       245  22 -3.070154E+05 -2.109939E+05 -1.036018E+05  1.726784E+05 -1.323489E-12 -2.646978E-12
       245  23 -2.997655E+05 -2.158998E+05 -1.031331E+05  1.632999E+05  1.654361E-12  1.323489E-12
       245  24 -2.915847E+05 -2.176488E+05 -1.018467E+05  1.531582E+05  1.488925E-12  0.000000E+00
       245  25 -3.388572E+05 -2.004828E+05 -1.078680E+05  1.684889E+05  0.000000E+00  0.000000E+00
       245  26 -3.261119E+05 -2.070747E+05 -1.066373E+05  1.610568E+05 -1.985233E-12  0.000000E+00
       245  27 -3.123714E+05 -2.112312E+05 -1.047205E+05  1.545483E+05 -1.654361E-13  1.985233E-12
       246   1 -2.688545E+05 -2.212454E+05 -9.801999E+04  1.452129E+05  1.654361E-12 -1.985233E-12
       246   2 -2.754433E+05 -2.197525E+05 -9.903916E+04  1.406439E+05  2.646978E-12  6.617445E-13
       246   3 -2.843156E+05 -2.197193E+05 -1.008070E+05  1.379892E+05  3.991146E-12 -2.274747E-12
       246   4 -2.920010E+05 -2.161037E+05 -1.016209E+05  1.478629E+05  3.308722E-12 -3.970467E-12
       246   5 -2.985443E+05 -2.134311E+05 -1.023951E+05  1.446303E+05 -9.926167E-13  5.293956E-12
       246   6 -3.077639E+05 -2.139349E+05 -1.043397E+05  1.432960E+05 -2.977850E-12  1.819797E-12
       246   7 -3.131937E+05 -2.102032E+05 -1.046794E+05  1.511812E+05  0.000000E+00 -7.940934E-12
       246   8 -3.209758E+05 -2.072013E+05 -1.056354E+05  1.484877E+05  3.308722E-12 -1.323489E-12
       246   9 -3.315369E+05 -2.092667E+05 -1.081607E+05  1.479139E+05  8.437242E-12  2.316106E-12
       246  10 -2.688545E+05 -2.212454E+05 -9.801999E+04  1.452129E+05 -1.654361E-13 -3.308722E-13
       246  11 -2.754433E+05 -2.197525E+05 -9.903916E+04  1.406439E+05  4.963084E-13  1.654361E-13
       246  12 -2.843156E+05 -2.197193E+05 -1.008070E+05  1.379892E+05 -1.240771E-13  4.135903E-13
       246  13 -2.920010E+05 -2.161037E+05 -1.016209E+05  1.478629E+05  0.000000E+00  6.617445E-13
       246  14 -2.985443E+05 -2.134311E+05 -1.023951E+05  1.446303E+05  3.308722E-13  0.000000E+00
       246  15 -3.077639E+05 -2.139349E+05 -1.043397E+05  1.432960E+05 -4.549493E-13 -7.444626E-13
       246  16 -3.131937E+05 -2.102032E+05 -1.046794E+05  1.511812E+05 -6.617445E-13  0.000000E+00
       246  17 -3.209758E+05 -2.072013E+05 -1.056354E+05  1.484877E+05  1.654361E-13  6.617445E-13
       246  18 -3.315369E+05 -2.092667E+05 -1.081607E+05  1.479139E+05 -3.722313E-13 -7.858216E-13
       246  19 -2.688545E+05 -2.212454E+05 -9.801999E+04  1.452129E+05 -3.308722E-13 -6.617445E-13
       246  20 -2.754433E+05 -2.197525E+05 -9.903916E+04  1.406439E+05  0.000000E+00  1.985233E-12
       246  21 -2.843156E+05 -2.197193E+05 -1.008070E+05  1.379892E+05 -1.344168E-12  7.568703E-12
       246  22 -2.920010E+05 -2.161037E+05 -1.016209E+05  1.478629E+05 -6.617445E-13 -1.323489E-12
       246  23 -2.985443E+05 -2.134311E+05 -1.023951E+05  1.446303E+05  9.926167E-13 -2.646978E-12
       246  24 -3.077639E+05 -2.139349E+05 -1.043397E+05  1.432960E+05  3.308722E-13  3.474159E-12
       246  25 -3.131937E+05 -2.102032E+05 -1.046794E+05  1.511812E+05 -2.646978E-12  2.646978E-12
       246  26 -3.209758E+05 -2.072013E+05 -1.056354E+05  1.484877E+05 -6.617445E-13 -1.323489E-12
       246  27 -3.315369E+05 -2.092667E+05 -1.081607E+05  1.479139E+05 -5.790264E-12 -2.316106E-12
       247   1 -3.538261E+05 -1.975521E+05 -1.102756E+05  1.659053E+05 -4.963084E-13  6.617445E-13
       247   2 -3.371008E+05 -2.030427E+05 -1.080287E+05  1.600387E+05  1.158053E-12 -4.797648E-12
       247   3 -3.209415E+05 -2.077588E+05 -1.057401E+05  1.535493E+05  1.799118E-12 -1.778438E-12
       247   4 -3.703328E+05 -1.950261E+05 -1.130718E+05  1.625745E+05  1.323489E-12 -1.323489E-12
       247   5 -3.507934E+05 -2.009501E+05 -1.103487E+05  1.574650E+05 -2.646978E-12  3.308722E-12
       247   6 -3.322840E+05 -2.066209E+05 -1.077810E+05  1.518647E+05  2.316106E-12 -6.617445E-12
       247   7 -3.878753E+05 -1.941717E+05 -1.164094E+05  1.601750E+05  1.323489E-12  2.646978E-12
       247   8 -3.654791E+05 -2.004729E+05 -1.131904E+05  1.557125E+05  6.617445E-13  2.646978E-12
       247   9 -3.444452E+05 -2.068913E+05 -1.102673E+05  1.508188E+05  2.977850E-12 -1.654361E-12
       247  10 -3.538261E+05 -1.975521E+05 -1.102756E+05  1.659053E+05  0.000000E+00 -3.308722E-13
       247  11 -3.371008E+05 -2.030427E+05 -1.080287E+05  1.600387E+05 -2.481542E-13  3.308722E-13
       247  12 -3.209415E+05 -2.077588E+05 -1.057401E+05  1.535493E+05  1.861156E-13  4.135903E-13
       247  13 -3.703328E+05 -1.950261E+05 -1.130718E+05  1.625745E+05 -6.617445E-13 -6.617445E-13
       247  14 -3.507934E+05 -2.009501E+05 -1.103487E+05  1.574650E+05  0.000000E+00 -3.308722E-13
       247  15 -3.322840E+05 -2.066209E+05 -1.077810E+05  1.518647E+05 -2.481542E-13  1.654361E-13
       247  16 -3.878753E+05 -1.941717E+05 -1.164094E+05  1.601750E+05 -3.308722E-13  0.000000E+00
       247  17 -3.654791E+05 -2.004729E+05 -1.131904E+05  1.557125E+05 -6.617445E-13 -1.158053E-12
       247  18 -3.444452E+05 -2.068913E+05 -1.102673E+05  1.508188E+05 -1.033976E-13 -3.722313E-13
       247  19 -3.538261E+05 -1.975521E+05 -1.102756E+05  1.659053E+05  4.963084E-13  1.985233E-12
       247  20 -3.371008E+05 -2.030427E+05 -1.080287E+05  1.600387E+05 -1.158053E-12  2.150670E-12
       247  21 -3.209415E+05 -2.077588E+05 -1.057401E+05  1.535493E+05 -4.446096E-12  4.425416E-12
       247  22 -3.703328E+05 -1.950261E+05 -1.130718E+05  1.625745E+05 -2.646978E-12  1.323489E-12
       247  23 -3.507934E+05 -2.009501E+05 -1.103487E+05  1.574650E+05  2.646978E-12 -6.617445E-13
       247  24 -3.322840E+05 -2.066209E+05 -1.077810E+05  1.518647E+05  3.308722E-13  1.323489E-12
       247  25 -3.878753E+05 -1.941717E+05 -1.164094E+05  1.601750E+05 -1.323489E-12  2.646978E-12
       247  26 -3.654791E+05 -2.004729E+05 -1.131904E+05  1.557125E+05 -5.955700E-12  2.646978E-12
       247  27 -3.444452E+05 -2.068913E+05 -1.102673E+05  1.508188E+05 -3.308722E-13  4.301339E-12
       248   1 -1.034681E+05 -1.025283E+05 -4.119927E+04  5.151861E+02 -2.646978E-12 -1.588187E-11
       248   2 -1.111811E+05 -1.035308E+05 -4.294238E+04  7.940771E+02 -1.985233E-12 -1.323489E-12
       248   3 -1.174475E+05 -1.037459E+05 -4.423868E+04  4.436993E+02  9.264423E-12  1.290402E-11
       248   4 -1.026690E+05 -1.033623E+05 -4.120627E+04  2.390365E+02 -1.588187E-11 -3.176374E-11
       248   5 -1.091816E+05 -1.038333E+05 -4.260298E+04  3.054389E+02  2.646978E-12  5.293956E-11
       248   6 -1.150253E+05 -1.038325E+05 -4.377156E+04  3.124349E+01  6.617445E-13  1.985233E-11
       248   7 -1.030775E+05 -1.044695E+05 -4.150941E+04  1.894776E+02  3.176374E-11  6.352747E-11
       248   8 -1.074341E+05 -1.040973E+05 -4.230629E+04 -7.280465E+01  1.588187E-11 -3.176374E-11
       248   9 -1.121398E+05 -1.036998E+05 -4.316793E+04 -1.931120E+02  9.264423E-12 -3.441071E-11
       248  10 -1.034681E+05 -1.025283E+05 -4.119927E+04  5.151861E+02  0.000000E+00 -2.646978E-12
       248  11 -1.111811E+05 -1.035308E+05 -4.294238E+04  7.940771E+02  6.617445E-13 -5.293956E-12
       248  12 -1.174475E+05 -1.037459E+05 -4.423868E+04  4.436993E+02 -8.271806E-13  3.970467E-12
       248  13 -1.026690E+05 -1.033623E+05 -4.120627E+04  2.390365E+02  2.646978E-12  0.000000E+00
       248  14 -1.091816E+05 -1.038333E+05 -4.260298E+04  3.054389E+02 -3.970467E-12  0.000000E+00
       248  15 -1.150253E+05 -1.038325E+05 -4.377156E+04  3.124349E+01 -3.639595E-12 -1.323489E-11
       248  16 -1.030775E+05 -1.044695E+05 -4.150941E+04  1.894776E+02 -1.323489E-12  0.000000E+00
       248  17 -1.074341E+05 -1.040973E+05 -4.230629E+04 -7.280465E+01  5.293956E-12 -9.264423E-12
       248  18 -1.121398E+05 -1.036998E+05 -4.316793E+04 -1.931120E+02 -9.926167E-13 -1.654361E-12
       248  19 -1.034681E+05 -1.025283E+05 -4.119927E+04  5.151861E+02  2.646978E-12  3.705769E-11
       248  20 -1.111811E+05 -1.035308E+05 -4.294238E+04  7.940771E+02  1.985233E-12  2.249931E-11
       248  21 -1.174475E+05 -1.037459E+05 -4.423868E+04  4.436993E+02 -9.264423E-12  8.271806E-12
       248  22 -1.026690E+05 -1.033623E+05 -4.120627E+04  2.390365E+02 -5.293956E-12  1.058791E-11
       248  23 -1.091816E+05 -1.038333E+05 -4.260298E+04  3.054389E+02  7.940934E-12 -1.058791E-11
       248  24 -1.150253E+05 -1.038325E+05 -4.377156E+04  3.124349E+01  9.926167E-12  1.323489E-12
       248  25 -1.030775E+05 -1.044695E+05 -4.150941E+04  1.894776E+02 -2.117582E-11  0.000000E+00
       248  26 -1.074341E+05 -1.040973E+05 -4.230629E+04 -7.280465E+01 -5.293956E-12 -1.058791E-11
       248  27 -1.121398E+05 -1.036998E+05 -4.316793E+04 -1.931120E+02  1.323489E-12  1.323489E-11
       249   1 -1.206842E+05 -1.037791E+05 -4.489266E+04 -1.601776E+02 -5.293956E-12 -2.646978E-11
       249   2 -1.241506E+05 -1.041213E+05 -4.565436E+04 -5.314929E+02  6.617445E-13  1.588187E-11
       249   3 -1.273181E+05 -1.042932E+05 -4.632227E+04 -1.040141E+03  4.466775E-12 -2.646978E-12
       249   4 -1.173296E+05 -1.037848E+05 -4.422287E+04 -2.492733E+02  0.000000E+00  0.000000E+00
       249   5 -1.198036E+05 -1.038816E+05 -4.473704E+04 -6.087363E+02  2.646978E-12 -5.293956E-11
       249   6 -1.222834E+05 -1.039086E+05 -4.523840E+04 -1.053134E+03  1.985233E-12  1.852885E-11
       249   7 -1.141616E+05 -1.038217E+05 -4.359666E+04 -4.319113E+02 -1.588187E-11  4.235165E-11
       249   8 -1.154704E+05 -1.036508E+05 -4.382424E+04 -6.972845E+02  5.293956E-12  0.000000E+00
       249   9 -1.172103E+05 -1.035429E+05 -4.415065E+04 -9.984835E+02  3.970467E-12 -1.111731E-10
       249  10 -1.206842E+05 -1.037791E+05 -4.489266E+04 -1.601776E+02  1.323489E-12 -5.293956E-12
       249  11 -1.241506E+05 -1.041213E+05 -4.565436E+04 -5.314929E+02  0.000000E+00 -7.940934E-12
       249  12 -1.273181E+05 -1.042932E+05 -4.632227E+04 -1.040141E+03  8.271806E-13  6.617445E-13
       249  13 -1.173296E+05 -1.037848E+05 -4.422287E+04 -2.492733E+02 -2.646978E-12 -1.058791E-11
       249  14 -1.198036E+05 -1.038816E+05 -4.473704E+04 -6.087363E+02 -1.323489E-12  1.058791E-11
       249  15 -1.222834E+05 -1.039086E+05 -4.523840E+04 -1.053134E+03  9.926167E-13 -7.940934E-12
       249  16 -1.141616E+05 -1.038217E+05 -4.359666E+04 -4.319113E+02 -1.323489E-12  2.646978E-12
       249  17 -1.154704E+05 -1.036508E+05 -4.382424E+04 -6.972845E+02 -6.617445E-13  2.646978E-12
       249  18 -1.172103E+05 -1.035429E+05 -4.415065E+04 -9.984835E+02 -1.654361E-13 -5.955700E-12
       249  19 -1.206842E+05 -1.037791E+05 -4.489266E+04 -1.601776E+02  5.293956E-12  2.646978E-11
       249  20 -1.241506E+05 -1.041213E+05 -4.565436E+04 -5.314929E+02 -1.124966E-11 -3.705769E-11
       249  21 -1.273181E+05 -1.042932E+05 -4.632227E+04 -1.040141E+03 -4.466775E-12  2.646978E-12
       249  22 -1.173296E+05 -1.037848E+05 -4.422287E+04 -2.492733E+02  0.000000E+00  4.235165E-11
       249  23 -1.198036E+05 -1.038816E+05 -4.473704E+04 -6.087363E+02 -1.323489E-11 -1.058791E-11
       249  24 -1.222834E+05 -1.039086E+05 -4.523840E+04 -1.053134E+03 -1.257315E-11 -1.852885E-11
       249  25 -1.141616E+05 -1.038217E+05 -4.359666E+04 -4.319113E+02 -5.293956E-12  0.000000E+00
       249  26 -1.154704E+05 -1.036508E+05 -4.382424E+04 -6.972845E+02  5.293956E-12  0.000000E+00
       249  27 -1.172103E+05 -1.035429E+05 -4.415065E+04 -9.984835E+02 -3.970467E-12  2.646978E-11
       250   1 -1.027860E+05 -1.045105E+05 -4.145929E+04 -9.985503E+01 -1.985233E-12  2.646978E-12
       250   2 -1.071548E+05 -1.039836E+05 -4.222769E+04 -1.942458E+02 -9.264423E-12 -3.705769E-11
       250   3 -1.114241E+05 -1.037514E+05 -4.303511E+04 -3.243715E+02  2.001777E-11  2.646978E-12
       250   4 -1.027522E+05 -1.039304E+05 -4.133652E+04 -8.633848E+01  1.058791E-11  2.117582E-11
       250   5 -1.078136E+05 -1.036541E+05 -4.229354E+04 -3.356667E+02  2.646978E-12 -2.646978E-11
       250   6 -1.129188E+05 -1.036135E+05 -4.330648E+04 -5.773207E+02  1.323489E-12 -4.102816E-11
       250   7 -1.030294E+05 -1.034232E+05 -4.129052E+04 -1.924265E+02  0.000000E+00  0.000000E+00
       250   8 -1.085254E+05 -1.033195E+05 -4.236898E+04 -5.635894E+02 -1.058791E-11  0.000000E+00
       250   9 -1.140685E+05 -1.033768E+05 -4.348908E+04 -8.815464E+02 -3.970467E-12  4.235165E-11
       250  10 -1.027860E+05 -1.045105E+05 -4.145929E+04 -9.985503E+01  0.000000E+00 -2.646978E-12
       250  11 -1.071548E+05 -1.039836E+05 -4.222769E+04 -1.942458E+02  0.000000E+00  5.293956E-12
       250  12 -1.114241E+05 -1.037514E+05 -4.303511E+04 -3.243715E+02  8.271806E-13 -3.308722E-12
       250  13 -1.027522E+05 -1.039304E+05 -4.133652E+04 -8.633848E+01  2.646978E-12  0.000000E+00
       250  14 -1.078136E+05 -1.036541E+05 -4.229354E+04 -3.356667E+02  2.646978E-12  2.117582E-11
       250  15 -1.129188E+05 -1.036135E+05 -4.330648E+04 -5.773207E+02  3.308722E-13  0.000000E+00
       250  16 -1.030294E+05 -1.034232E+05 -4.129052E+04 -1.924265E+02  0.000000E+00 -2.646978E-12
       250  17 -1.085254E+05 -1.033195E+05 -4.236898E+04 -5.635894E+02  1.323489E-12  6.617445E-12
       250  18 -1.140685E+05 -1.033768E+05 -4.348908E+04 -8.815464E+02  1.158053E-12  9.926167E-13
       250  19 -1.027860E+05 -1.045105E+05 -4.145929E+04 -9.985503E+01  1.257315E-11  3.970467E-11
       250  20 -1.071548E+05 -1.039836E+05 -4.222769E+04 -1.942458E+02 -1.323489E-12 -5.293956E-12
       250  21 -1.114241E+05 -1.037514E+05 -4.303511E+04 -3.243715E+02 -9.429859E-12  1.852885E-11
       250  22 -1.027522E+05 -1.039304E+05 -4.133652E+04 -8.633848E+01 -1.058791E-11  2.117582E-11
       250  23 -1.078136E+05 -1.036541E+05 -4.229354E+04 -3.356667E+02 -2.646978E-12  5.293956E-12
       250  24 -1.129188E+05 -1.036135E+05 -4.330648E+04 -5.773207E+02  9.264423E-12  4.102816E-11
       250  25 -1.030294E+05 -1.034232E+05 -4.129052E+04 -1.924265E+02  0.000000E+00  0.000000E+00
       250  26 -1.085254E+05 -1.033195E+05 -4.236898E+04 -5.635894E+02  1.058791E-11 -2.117582E-11
       250  27 -1.140685E+05 -1.033768E+05 -4.348908E+04 -8.815464E+02  3.970467E-12  0.000000E+00
       251   1 -5.772142E+05 -1.942720E+05 -1.542972E+05  1.809863E+05 -3.970467E-12  2.977850E-12
       251   2 -5.766530E+05 -1.905413E+05 -1.534389E+05  1.783662E+05  1.323489E-12  2.150670E-12
       251   3 -5.728384E+05 -1.860815E+05 -1.517840E+05  1.759720E+05  3.722313E-12  1.530284E-12
       251   4 -5.640099E+05 -2.014109E+05 -1.530842E+05  1.838515E+05  5.293956E-12  2.646978E-12
       251   5 -5.640756E+05 -1.977715E+05 -1.523694E+05  1.807862E+05 -3.970467E-12  6.617445E-13
       251   6 -5.625954E+05 -1.937702E+05 -1.512731E+05  1.776375E+05 -3.474159E-12  3.805031E-12
       251   7 -5.530912E+05 -2.101641E+05 -1.526511E+05  1.851769E+05 -1.058791E-11 -2.646978E-12
       251   8 -5.522078E+05 -2.054446E+05 -1.515305E+05  1.824981E+05  7.940934E-12  6.617445E-12
       251   9 -5.520543E+05 -2.004775E+05 -1.505064E+05  1.795700E+05  2.646978E-12 -3.970467E-12
       251  10 -5.772142E+05 -1.942720E+05 -1.542972E+05  1.809863E+05  3.308722E-13  0.000000E+00
       251  11 -5.766530E+05 -1.905413E+05 -1.534389E+05  1.783662E+05 -9.926167E-13  1.323489E-12
       251  12 -5.728384E+05 -1.860815E+05 -1.517840E+05  1.759720E+05 -8.271806E-14  4.963084E-13
       251  13 -5.640099E+05 -2.014109E+05 -1.530842E+05  1.838515E+05  1.323489E-12  0.000000E+00
       251  14 -5.640756E+05 -1.977715E+05 -1.523694E+05  1.807862E+05  3.970467E-12  6.617445E-13
       251  15 -5.625954E+05 -1.937702E+05 -1.512731E+05  1.776375E+05 -4.963084E-13 -3.308722E-13
       251  16 -5.530912E+05 -2.101641E+05 -1.526511E+05  1.851769E+05  3.308722E-13  0.000000E+00
       251  17 -5.522078E+05 -2.054446E+05 -1.515305E+05  1.824981E+05  1.488925E-12 -6.617445E-13
       251  18 -5.520543E+05 -2.004775E+05 -1.505064E+05  1.795700E+05  8.271806E-14 -4.135903E-14
       251  19 -5.772142E+05 -1.942720E+05 -1.542972E+05  1.809863E+05  3.970467E-12 -2.977850E-12
       251  20 -5.766530E+05 -1.905413E+05 -1.534389E+05  1.783662E+05 -1.323489E-12  4.963084E-13
       251  21 -5.728384E+05 -1.860815E+05 -1.517840E+05  1.759720E+05 -3.722313E-12  3.763672E-12
       251  22 -5.640099E+05 -2.014109E+05 -1.530842E+05  1.838515E+05  0.000000E+00  2.646978E-12
       251  23 -5.640756E+05 -1.977715E+05 -1.523694E+05  1.807862E+05 -1.323489E-12  4.632211E-12
       251  24 -5.625954E+05 -1.937702E+05 -1.512731E+05  1.776375E+05  3.474159E-12  1.488925E-12
       251  25 -5.530912E+05 -2.101641E+05 -1.526511E+05  1.851769E+05  5.293956E-12  2.646978E-12
       251  26 -5.522078E+05 -2.054446E+05 -1.515305E+05  1.824981E+05 -2.646978E-12 -1.323489E-12
       251  27 -5.520543E+05 -2.004775E+05 -1.505064E+05  1.795700E+05 -2.646978E-12  9.264423E-12
       252   1 -5.674237E+05 -1.855155E+05 -1.505878E+05  1.760508E+05  2.977850E-12  1.323489E-12
       252   2 -5.542010E+05 -1.886798E+05 -1.485761E+05  1.746333E+05  3.308722E-13 -8.271806E-13
       252   3 -5.393702E+05 -1.914189E+05 -1.461578E+05  1.735005E+05  1.075335E-12  1.861156E-12
       252   4 -5.583232E+05 -1.928085E+05 -1.502263E+05  1.774417E+05  1.323489E-12  1.323489E-12
       252   5 -5.461915E+05 -1.959396E+05 -1.484262E+05  1.760887E+05 -3.308722E-12 -3.970467E-12
       252   6 -5.329462E+05 -1.988026E+05 -1.463498E+05  1.749528E+05  1.207684E-11 -8.437242E-12
       252   7 -5.494330E+05 -2.009440E+05 -1.500754E+05  1.788477E+05 -2.646978E-12  2.646978E-12
       252   8 -5.384820E+05 -2.038850E+05 -1.484734E+05  1.778069E+05  0.000000E+00  2.646978E-12
       252   9 -5.270640E+05 -2.068054E+05 -1.467739E+05  1.768354E+05 -1.124966E-11 -6.617445E-13
       252  10 -5.674237E+05 -1.855155E+05 -1.505878E+05  1.760508E+05  9.926167E-13  3.308722E-13
       252  11 -5.542010E+05 -1.886798E+05 -1.485761E+05  1.746333E+05  1.654361E-13 -8.271806E-13
       252  12 -5.393702E+05 -1.914189E+05 -1.461578E+05  1.735005E+05 -1.654361E-13 -3.722313E-13
       252  13 -5.583232E+05 -1.928085E+05 -1.502263E+05  1.774417E+05  0.000000E+00  1.985233E-12
       252  14 -5.461915E+05 -1.959396E+05 -1.484262E+05  1.760887E+05 -1.985233E-12  0.000000E+00
       252  15 -5.329462E+05 -1.988026E+05 -1.463498E+05  1.749528E+05  4.963084E-13 -1.158053E-12
       252  16 -5.494330E+05 -2.009440E+05 -1.500754E+05  1.788477E+05  1.323489E-12  0.000000E+00
       252  17 -5.384820E+05 -2.038850E+05 -1.484734E+05  1.778069E+05  4.963084E-13  4.963084E-13
       252  18 -5.270640E+05 -2.068054E+05 -1.467739E+05  1.768354E+05  8.271806E-14 -8.271806E-14
       252  19 -5.674237E+05 -1.855155E+05 -1.505878E+05  1.760508E+05 -2.977850E-12  1.323489E-12
       252  20 -5.542010E+05 -1.886798E+05 -1.485761E+05  1.746333E+05 -3.308722E-13  8.271806E-13
       252  21 -5.393702E+05 -1.914189E+05 -1.461578E+05  1.735005E+05 -6.369291E-12  7.858216E-13
       252  22 -5.583232E+05 -1.928085E+05 -1.502263E+05  1.774417E+05 -1.323489E-12  1.323489E-12
       252  23 -5.461915E+05 -1.959396E+05 -1.484262E+05  1.760887E+05 -1.985233E-12  3.970467E-12
       252  24 -5.329462E+05 -1.988026E+05 -1.463498E+05  1.749528E+05  3.805031E-12 -2.150670E-12
       252  25 -5.494330E+05 -2.009440E+05 -1.500754E+05  1.788477E+05  0.000000E+00 -2.646978E-12
       252  26 -5.384820E+05 -2.038850E+05 -1.484734E+05  1.778069E+05 -5.293956E-12  0.000000E+00
       252  27 -5.270640E+05 -2.068054E+05 -1.467739E+05  1.768354E+05  6.617445E-13 -4.632211E-12
       253   1 -5.464037E+05 -2.145180E+05 -1.521843E+05  1.852735E+05 -1.323489E-12 -4.301339E-12
       253   2 -5.463147E+05 -2.088188E+05 -1.510267E+05  1.825073E+05  3.970467E-12  1.488925E-12
       253   3 -5.466007E+05 -2.039037E+05 -1.501009E+05  1.802332E+05  9.181705E-12  1.447566E-12
       253   4 -5.337906E+05 -2.195942E+05 -1.506770E+05  1.853864E+05  1.058791E-11  2.646978E-12
       253   5 -5.345778E+05 -2.135438E+05 -1.496243E+05  1.821118E+05  2.646978E-12  3.970467E-12
       253   6 -5.358857E+05 -2.079610E+05 -1.487693E+05  1.791328E+05  6.286573E-12 -2.646978E-12
       253   7 -5.220053E+05 -2.255909E+05 -1.495192E+05  1.849763E+05 -5.293956E-12 -2.646978E-12
       253   8 -5.233012E+05 -2.185058E+05 -1.483614E+05  1.815102E+05  1.323489E-11 -6.617445E-12
       253   9 -5.251455E+05 -2.114919E+05 -1.473275E+05  1.782621E+05 -2.977850E-12  2.977850E-12
       253  10 -5.464037E+05 -2.145180E+05 -1.521843E+05  1.852735E+05 -6.617445E-13  3.308722E-13
       253  11 -5.463147E+05 -2.088188E+05 -1.510267E+05  1.825073E+05 -9.926167E-13 -3.308722E-13
       253  12 -5.466007E+05 -2.039037E+05 -1.501009E+05  1.802332E+05 -4.135903E-13  1.033976E-12
       253  13 -5.337906E+05 -2.195942E+05 -1.506770E+05  1.853864E+05  1.323489E-12  0.000000E+00
       253  14 -5.345778E+05 -2.135438E+05 -1.496243E+05  1.821118E+05  1.323489E-12  0.000000E+00
       253  15 -5.358857E+05 -2.079610E+05 -1.487693E+05  1.791328E+05 -3.308722E-13  0.000000E+00
       253  16 -5.220053E+05 -2.255909E+05 -1.495192E+05  1.849763E+05  0.000000E+00  0.000000E+00
       253  17 -5.233012E+05 -2.185058E+05 -1.483614E+05  1.815102E+05 -6.617445E-13  1.654361E-13
       253  18 -5.251455E+05 -2.114919E+05 -1.473275E+05  1.782621E+05 -6.617445E-13 -1.654361E-13
       253  19 -5.464037E+05 -2.145180E+05 -1.521843E+05  1.852735E+05  1.323489E-12  1.654361E-12
       253  20 -5.463147E+05 -2.088188E+05 -1.510267E+05  1.825073E+05 -9.264423E-12 -1.488925E-12
       253  21 -5.466007E+05 -2.039037E+05 -1.501009E+05  1.802332E+05  6.700163E-12  1.199412E-12
       253  22 -5.337906E+05 -2.195942E+05 -1.506770E+05  1.853864E+05  0.000000E+00  7.940934E-12
       253  23 -5.345778E+05 -2.135438E+05 -1.496243E+05  1.821118E+05  2.646978E-12  1.323489E-12
       253  24 -5.358857E+05 -2.079610E+05 -1.487693E+05  1.791328E+05 -9.926167E-13  5.293956E-12
       253  25 -5.220053E+05 -2.255909E+05 -1.495192E+05  1.849763E+05  0.000000E+00  7.940934E-12
       253  26 -5.233012E+05 -2.185058E+05 -1.483614E+05  1.815102E+05 -7.940934E-12  1.323489E-12
       253  27 -5.251455E+05 -2.114919E+05 -1.473275E+05  1.782621E+05  8.271806E-12  2.316106E-12
       254   1 -1.155130E+05 -8.958071E+04 -4.101875E+04 -6.029998E+03 -1.571643E-12  1.959384E-12
       254   2 -1.146738E+05 -8.806669E+04 -4.054809E+04 -7.957813E+03 -1.432056E-12  1.718985E-12
       254   3 -1.138857E+05 -8.669059E+04 -4.011526E+04 -9.928296E+03 -1.338999E-12  1.826260E-12
       254   4 -1.192313E+05 -8.644395E+04 -4.113505E+04 -6.766573E+03 -1.158053E-12  1.633682E-12
       254   5 -1.182568E+05 -8.498309E+04 -4.064798E+04 -8.634436E+03 -4.135903E-14  5.169879E-14
       254   6 -1.173030E+05 -8.365780E+04 -4.019216E+04 -1.053659E+04 -1.302809E-12  1.672456E-12
       254   7 -1.234830E+05 -8.360887E+04 -4.141838E+04 -7.268761E+03 -1.240771E-12  1.778438E-12
       254   8 -1.223444E+05 -8.217351E+04 -4.090359E+04 -9.088178E+03 -1.075335E-12  1.426887E-12
       254   9 -1.211843E+05 -8.086359E+04 -4.040958E+04 -1.093560E+04 -1.261450E-12  1.675041E-12
       254  10 -1.155130E+05 -8.958071E+04 -4.101875E+04 -6.029998E+03  0.000000E+00  0.000000E+00
       254  11 -1.146738E+05 -8.806669E+04 -4.054809E+04 -7.957813E+03  1.033976E-14 -7.754818E-15
       254  12 -1.138857E+05 -8.669059E+04 -4.011526E+04 -9.928296E+03 -1.550964E-14 -6.462349E-16
       254  13 -1.192313E+05 -8.644395E+04 -4.113505E+04 -6.766573E+03 -2.067952E-14  2.067952E-14
       254  14 -1.182568E+05 -8.498309E+04 -4.064798E+04 -8.634436E+03  2.067952E-14 -2.067952E-14
       254  15 -1.173030E+05 -8.365780E+04 -4.019216E+04 -1.053659E+04 -1.550964E-14 -5.169879E-15
       254  16 -1.234830E+05 -8.360887E+04 -4.141838E+04 -7.268761E+03 -1.033976E-14 -5.169879E-15
       254  17 -1.223444E+05 -8.217351E+04 -4.090359E+04 -9.088178E+03 -2.067952E-14  2.584939E-15
       254  18 -1.211843E+05 -8.086359E+04 -4.040958E+04 -1.093560E+04 -3.101927E-14 -7.108583E-15
       254  19 -1.155130E+05 -8.958071E+04 -4.101875E+04 -6.029998E+03  1.737079E-12 -2.000743E-12
       254  20 -1.146738E+05 -8.806669E+04 -4.054809E+04 -7.957813E+03  1.432056E-12 -1.760344E-12
       254  21 -1.138857E+05 -8.669059E+04 -4.011526E+04 -9.928296E+03  1.338999E-12 -1.908978E-12
       254  22 -1.192313E+05 -8.644395E+04 -4.113505E+04 -6.766573E+03  1.158053E-12 -1.633682E-12
       254  23 -1.182568E+05 -8.498309E+04 -4.064798E+04 -8.634436E+03  4.135903E-14  3.101927E-14
       254  24 -1.173030E+05 -8.365780E+04 -4.019216E+04 -1.053659E+04  1.385528E-12 -1.631097E-12
       254  25 -1.234830E+05 -8.360887E+04 -4.141838E+04 -7.268761E+03  1.240771E-12 -1.695720E-12
       254  26 -1.223444E+05 -8.217351E+04 -4.090359E+04 -9.088178E+03  1.158053E-12 -1.468246E-12
       254  27 -1.211843E+05 -8.086359E+04 -4.040958E+04 -1.093560E+04  1.178732E-12 -1.675041E-12
       255   1 -1.137997E+05 -8.545816E+04 -3.985156E+04 -1.126914E+04 -1.499265E-12  1.923195E-12
       255   2 -1.141877E+05 -8.233192E+04 -3.930392E+04 -1.393111E+04 -1.059825E-12  1.631097E-12
       255   3 -1.145590E+05 -7.908003E+04 -3.872780E+04 -1.660725E+04 -1.203289E-12  1.657592E-12
       255   4 -1.176175E+05 -8.262208E+04 -4.004791E+04 -1.159860E+04 -1.075335E-12  1.571643E-12
       255   5 -1.186957E+05 -7.958770E+04 -3.965669E+04 -1.365788E+04 -6.203855E-14  6.203855E-14
       255   6 -1.196937E+05 -7.617229E+04 -3.917320E+04 -1.580891E+04 -8.840493E-13  1.333829E-12
       255   7 -1.209853E+05 -7.965690E+04 -4.012845E+04 -1.199541E+04 -1.158053E-12  1.654361E-12
       255   8 -1.231407E+05 -7.685599E+04 -3.999934E+04 -1.324084E+04 -9.512577E-13  1.344168E-12
       255   9 -1.250124E+05 -7.328852E+04 -3.966018E+04 -1.474655E+04 -9.305782E-13  1.354508E-12
       255  10 -1.137997E+05 -8.545816E+04 -3.985156E+04 -1.126914E+04 -1.033976E-14  0.000000E+00
       255  11 -1.141877E+05 -8.233192E+04 -3.930392E+04 -1.393111E+04  5.169879E-15  1.550964E-14
       255  12 -1.145590E+05 -7.908003E+04 -3.872780E+04 -1.660725E+04 -9.047288E-15 -7.108583E-15
       255  13 -1.176175E+05 -8.262208E+04 -4.004791E+04 -1.159860E+04  0.000000E+00 -1.033976E-14
       255  14 -1.186957E+05 -7.958770E+04 -3.965669E+04 -1.365788E+04 -1.033976E-14  0.000000E+00
       255  15 -1.196937E+05 -7.617229E+04 -3.917320E+04 -1.580891E+04 -1.033976E-14 -1.292470E-15
       255  16 -1.209853E+05 -7.965690E+04 -4.012845E+04 -1.199541E+04  0.000000E+00  1.033976E-14
       255  17 -1.231407E+05 -7.685599E+04 -3.999934E+04 -1.324084E+04  5.169879E-15  7.754818E-15
       255  18 -1.250124E+05 -7.328852E+04 -3.966018E+04 -1.474655E+04  2.584939E-15  6.462349E-15
       255  19 -1.137997E+05 -8.545816E+04 -3.985156E+04 -1.126914E+04  1.499265E-12 -1.923195E-12
       255  20 -1.141877E+05 -8.233192E+04 -3.930392E+04 -1.393111E+04  1.225261E-12 -1.631097E-12
       255  21 -1.145590E+05 -7.908003E+04 -3.872780E+04 -1.660725E+04  1.244648E-12 -1.657592E-12
       255  22 -1.176175E+05 -8.262208E+04 -4.004791E+04 -1.159860E+04  1.158053E-12 -1.530284E-12
       255  23 -1.186957E+05 -7.958770E+04 -3.965669E+04 -1.365788E+04  6.203855E-14 -2.067952E-14
       255  24 -1.196937E+05 -7.617229E+04 -3.917320E+04 -1.580891E+04  8.840493E-13 -1.333829E-12
       255  25 -1.209853E+05 -7.965690E+04 -4.012845E+04 -1.199541E+04  1.158053E-12 -1.654361E-12
       255  26 -1.231407E+05 -7.685599E+04 -3.999934E+04 -1.324084E+04  8.685396E-13 -1.385528E-12
       255  27 -1.250124E+05 -7.328852E+04 -3.966018E+04 -1.474655E+04  8.478601E-13 -1.354508E-12
       256   1 -1.260181E+05 -8.146189E+04 -4.149601E+04 -7.608767E+03 -1.251111E-12  1.675041E-12
       256   2 -1.243179E+05 -8.042035E+04 -4.094764E+04 -9.434584E+03 -9.719372E-13  1.435934E-12
       256   3 -1.226068E+05 -7.948824E+04 -4.041900E+04 -1.129822E+04 -1.234309E-12  1.595554E-12
       256   4 -1.301513E+05 -7.758595E+04 -4.154745E+04 -8.176265E+03 -1.033976E-12  1.261450E-12
       256   5 -1.278282E+05 -7.677834E+04 -4.092131E+04 -1.022394E+04 -1.447566E-13 -1.033976E-14
       256   6 -1.252624E+05 -7.621903E+04 -4.029629E+04 -1.239415E+04 -1.028806E-12  1.326074E-12
       256   7 -1.348671E+05 -7.419851E+04 -4.181312E+04 -8.425878E+03 -9.926167E-13  1.302809E-12
       256   8 -1.316907E+05 -7.346484E+04 -4.103110E+04 -1.080066E+04 -7.858216E-13  1.168393E-12
       256   9 -1.280105E+05 -7.300041E+04 -4.020219E+04 -1.340285E+04 -1.033976E-12  1.372603E-12
       256  10 -1.260181E+05 -8.146189E+04 -4.149601E+04 -7.608767E+03  1.033976E-14 -5.169879E-15
       256  11 -1.243179E+05 -8.042035E+04 -4.094764E+04 -9.434584E+03  2.584939E-14  5.169879E-15
       256  12 -1.226068E+05 -7.948824E+04 -4.041900E+04 -1.129822E+04  1.292470E-15 -2.261822E-15
       256  13 -1.301513E+05 -7.758595E+04 -4.154745E+04 -8.176265E+03  2.067952E-14 -1.033976E-14
       256  14 -1.278282E+05 -7.677834E+04 -4.092131E+04 -1.022394E+04 -3.101927E-14 -5.169879E-15
       256  15 -1.252624E+05 -7.621903E+04 -4.029629E+04 -1.239415E+04  1.292470E-14 -1.292470E-15
       256  16 -1.348671E+05 -7.419851E+04 -4.181312E+04 -8.425878E+03 -1.033976E-14 -5.169879E-15
       256  17 -1.316907E+05 -7.346484E+04 -4.103110E+04 -1.080066E+04  1.033976E-14  7.754818E-15
       256  18 -1.280105E+05 -7.300041E+04 -4.020219E+04 -1.340285E+04  1.033976E-14 -2.261822E-15
       256  19 -1.260181E+05 -8.146189E+04 -4.149601E+04 -7.608767E+03  1.251111E-12 -1.675041E-12
       256  20 -1.243179E+05 -8.042035E+04 -4.094764E+04 -9.434584E+03  8.892192E-13 -1.477293E-12
       256  21 -1.226068E+05 -7.948824E+04 -4.041900E+04 -1.129822E+04  1.234309E-12 -1.595554E-12
       256  22 -1.301513E+05 -7.758595E+04 -4.154745E+04 -8.176265E+03  1.116694E-12 -1.261450E-12
       256  23 -1.278282E+05 -7.677834E+04 -4.092131E+04 -1.022394E+04  6.203855E-14  1.033976E-14
       256  24 -1.252624E+05 -7.621903E+04 -4.029629E+04 -1.239415E+04  8.633698E-13 -1.243356E-12
       256  25 -1.348671E+05 -7.419851E+04 -4.181312E+04 -8.425878E+03  9.926167E-13 -1.302809E-12
       256  26 -1.316907E+05 -7.346484E+04 -4.103110E+04 -1.080066E+04  7.858216E-13 -1.168393E-12
       256  27 -1.280105E+05 -7.300041E+04 -4.020219E+04 -1.340285E+04  1.033976E-12 -1.310564E-12
       257   1 -2.833574E+05 -1.980872E+05 -9.628892E+04  3.759663E+04  0.000000E+00  7.940934E-12
       257   2 -2.820848E+05 -1.914380E+05 -9.470455E+04  4.839036E+04  1.158053E-11 -4.235165E-11
       257   3 -2.862467E+05 -1.849951E+05 -9.424837E+04  5.890099E+04  1.050519E-11  2.994394E-11
       257   4 -2.859432E+05 -2.002170E+05 -9.723202E+04  4.121670E+04  7.940934E-12 -2.117582E-11
       257   5 -2.860975E+05 -1.945553E+05 -9.613057E+04  5.023496E+04 -5.293956E-12  0.000000E+00
       257   6 -2.880687E+05 -1.888535E+05 -9.538445E+04  5.901204E+04  1.124966E-11  0.000000E+00
       257   7 -2.858575E+05 -2.008320E+05 -9.733790E+04  4.609533E+04  1.058791E-11 -2.117582E-11
       257   8 -2.901309E+05 -1.978293E+05 -9.759204E+04  5.212979E+04  1.852885E-11  1.058791E-11
       257   9 -2.891628E+05 -1.941048E+05 -9.665351E+04  5.816365E+04 -5.955700E-12  1.720536E-11
       257  10 -2.833574E+05 -1.980872E+05 -9.628892E+04  3.759663E+04  6.617445E-13 -2.646978E-12
       257  11 -2.820848E+05 -1.914380E+05 -9.470455E+04  4.839036E+04  6.617445E-13  3.970467E-12
       257  12 -2.862467E+05 -1.849951E+05 -9.424837E+04  5.890099E+04  8.271806E-14  0.000000E+00
       257  13 -2.859432E+05 -2.002170E+05 -9.723202E+04  4.121670E+04 -1.323489E-12  0.000000E+00
       257  14 -2.860975E+05 -1.945553E+05 -9.613057E+04  5.023496E+04 -1.323489E-12 -1.323489E-11
       257  15 -2.880687E+05 -1.888535E+05 -9.538445E+04  5.901204E+04 -6.617445E-13  3.308722E-12
       257  16 -2.858575E+05 -2.008320E+05 -9.733790E+04  4.609533E+04  6.617445E-13 -5.293956E-12
       257  17 -2.901309E+05 -1.978293E+05 -9.759204E+04  5.212979E+04 -6.617445E-13  2.646978E-12
       257  18 -2.891628E+05 -1.941048E+05 -9.665351E+04  5.816365E+04  8.271806E-14 -2.646978E-12
       257  19 -2.833574E+05 -1.980872E+05 -9.628892E+04  3.759663E+04 -5.293956E-12 -7.940934E-12
       257  20 -2.820848E+05 -1.914380E+05 -9.470455E+04  4.839036E+04  4.301339E-12  2.117582E-11
       257  21 -2.862467E+05 -1.849951E+05 -9.424837E+04  5.890099E+04 -1.050519E-11  1.240771E-11
       257  22 -2.859432E+05 -2.002170E+05 -9.723202E+04  4.121670E+04  2.646978E-12  0.000000E+00
       257  23 -2.860975E+05 -1.945553E+05 -9.613057E+04  5.023496E+04  0.000000E+00  0.000000E+00
       257  24 -2.880687E+05 -1.888535E+05 -9.538445E+04  5.901204E+04 -5.955700E-12  0.000000E+00
       257  25 -2.858575E+05 -2.008320E+05 -9.733790E+04  4.609533E+04 -5.293956E-12  0.000000E+00
       257  26 -2.901309E+05 -1.978293E+05 -9.759204E+04  5.212979E+04 -7.940934E-12  3.176374E-11
       257  27 -2.891628E+05 -1.941048E+05 -9.665351E+04  5.816365E+04 -4.632211E-12 -5.955700E-11
       258   1 -5.546423E+05 -1.402985E+05 -1.389881E+05  1.721467E+05 -4.963084E-13  0.000000E+00
       258   2 -5.525168E+05 -1.489549E+05 -1.402943E+05  1.706450E+05 -1.364848E-12  1.654361E-13
       258   3 -5.512608E+05 -1.626157E+05 -1.427753E+05  1.683275E+05 -2.729696E-12  1.033976E-13
       258   4 -5.254367E+05 -1.506335E+05 -1.352140E+05  1.694049E+05 -1.654361E-12  6.617445E-13
       258   5 -5.269583E+05 -1.579847E+05 -1.369886E+05  1.681885E+05 -1.323489E-12 -4.963084E-13
       258   6 -5.295010E+05 -1.649399E+05 -1.388882E+05  1.665267E+05 -1.488925E-12 -2.026593E-12
       258   7 -4.929892E+05 -1.543860E+05 -1.294750E+05  1.642229E+05 -1.323489E-12  6.617445E-13
       258   8 -5.006144E+05 -1.660653E+05 -1.333359E+05  1.652127E+05 -3.308722E-13 -3.308722E-13
       258   9 -5.110023E+05 -1.706795E+05 -1.363364E+05  1.675855E+05 -6.617445E-13  9.926167E-13
       258  10 -5.546423E+05 -1.402985E+05 -1.389881E+05  1.721467E+05 -1.240771E-13  4.135903E-14
       258  11 -5.525168E+05 -1.489549E+05 -1.402943E+05  1.706450E+05  0.000000E+00 -6.203855E-14
       258  12 -5.512608E+05 -1.626157E+05 -1.427753E+05  1.683275E+05  8.271806E-14 -1.033976E-13
       258  13 -5.254367E+05 -1.506335E+05 -1.352140E+05  1.694049E+05  0.000000E+00 -8.271806E-14
       258  14 -5.269583E+05 -1.579847E+05 -1.369886E+05  1.681885E+05  1.654361E-13 -8.271806E-14
       258  15 -5.295010E+05 -1.649399E+05 -1.388882E+05  1.665267E+05  4.135903E-14  1.550964E-13
       258  16 -4.929892E+05 -1.543860E+05 -1.294750E+05  1.642229E+05  8.271806E-14  4.135903E-14
       258  17 -5.006144E+05 -1.660653E+05 -1.333359E+05  1.652127E+05  2.067952E-14  3.101927E-13
       258  18 -5.110023E+05 -1.706795E+05 -1.363364E+05  1.675855E+05 -2.378144E-13 -1.240771E-13
       258  19 -5.546423E+05 -1.402985E+05 -1.389881E+05  1.721467E+05  1.654361E-13  1.654361E-13
       258  20 -5.525168E+05 -1.489549E+05 -1.402943E+05  1.706450E+05  4.135903E-14 -1.654361E-13
       258  21 -5.512608E+05 -1.626157E+05 -1.427753E+05  1.683275E+05  1.406207E-12 -7.651421E-13
       258  22 -5.254367E+05 -1.506335E+05 -1.352140E+05  1.694049E+05  3.308722E-13  0.000000E+00
       258  23 -5.269583E+05 -1.579847E+05 -1.369886E+05  1.681885E+05  0.000000E+00  4.963084E-13
       258  24 -5.295010E+05 -1.649399E+05 -1.388882E+05  1.665267E+05  1.488925E-12 -6.203855E-13
       258  25 -4.929892E+05 -1.543860E+05 -1.294750E+05  1.642229E+05  6.617445E-13 -6.617445E-13
       258  26 -5.006144E+05 -1.660653E+05 -1.333359E+05  1.652127E+05  3.308722E-13  3.308722E-13
       258  27 -5.110023E+05 -1.706795E+05 -1.363364E+05  1.675855E+05  6.617445E-13  3.308722E-13
       259   1 -5.482953E+05 -1.719960E+05 -1.440583E+05  1.698814E+05 -1.488925E-12 -8.271806E-14
       259   2 -5.370676E+05 -1.834768E+05 -1.441089E+05  1.725137E+05 -1.571643E-12  4.135903E-13
       259   3 -5.263169E+05 -1.970632E+05 -1.446760E+05  1.751730E+05 -6.803561E-12  4.446096E-12
       259   4 -5.296985E+05 -1.722874E+05 -1.403972E+05  1.696768E+05 -1.323489E-12  2.316106E-12
       259   5 -5.182109E+05 -1.841086E+05 -1.404639E+05  1.720609E+05 -9.926167E-13  6.617445E-13
       259   6 -5.073305E+05 -1.984117E+05 -1.411484E+05  1.745111E+05 -3.639595E-12  9.926167E-13
       259   7 -5.076347E+05 -1.712364E+05 -1.357742E+05  1.682664E+05 -2.646978E-12  1.323489E-12
       259   8 -4.961712E+05 -1.839731E+05 -1.360289E+05  1.704902E+05 -4.632211E-12  3.308722E-13
       259   9 -4.854221E+05 -1.995620E+05 -1.369968E+05  1.728113E+05 -3.970467E-12  3.143286E-12
       259  10 -5.482953E+05 -1.719960E+05 -1.440583E+05  1.698814E+05  1.654361E-13 -1.654361E-13
       259  11 -5.370676E+05 -1.834768E+05 -1.441089E+05  1.725137E+05 -5.790264E-13  2.067952E-13
       259  12 -5.263169E+05 -1.970632E+05 -1.446760E+05  1.751730E+05 -4.135903E-14  1.964554E-13
       259  13 -5.296985E+05 -1.722874E+05 -1.403972E+05  1.696768E+05 -3.308722E-13  0.000000E+00
       259  14 -5.182109E+05 -1.841086E+05 -1.404639E+05  1.720609E+05  1.654361E-13 -4.963084E-13
       259  15 -5.073305E+05 -1.984117E+05 -1.411484E+05  1.745111E+05  3.308722E-13 -2.895132E-13
       259  16 -5.076347E+05 -1.712364E+05 -1.357742E+05  1.682664E+05  1.654361E-13 -2.481542E-13
       259  17 -4.961712E+05 -1.839731E+05 -1.360289E+05  1.704902E+05  9.098987E-13 -2.481542E-13
       259  18 -4.854221E+05 -1.995620E+05 -1.369968E+05  1.728113E+05 -1.654361E-13 -2.171349E-13
       259  19 -5.482953E+05 -1.719960E+05 -1.440583E+05  1.698814E+05  1.488925E-12  8.271806E-14
       259  20 -5.370676E+05 -1.834768E+05 -1.441089E+05  1.725137E+05  1.571643E-12  9.098987E-13
       259  21 -5.263169E+05 -1.970632E+05 -1.446760E+05  1.751730E+05  4.156583E-12 -1.799118E-12
       259  22 -5.296985E+05 -1.722874E+05 -1.403972E+05  1.696768E+05  2.646978E-12  1.654361E-12
       259  23 -5.182109E+05 -1.841086E+05 -1.404639E+05  1.720609E+05 -3.308722E-13 -6.617445E-13
       259  24 -5.073305E+05 -1.984117E+05 -1.411484E+05  1.745111E+05  2.316106E-12 -2.316106E-12
       259  25 -5.076347E+05 -1.712364E+05 -1.357742E+05  1.682664E+05  2.646978E-12  0.000000E+00
       259  26 -4.961712E+05 -1.839731E+05 -1.360289E+05  1.704902E+05 -6.617445E-13 -3.308722E-13
       259  27 -4.854221E+05 -1.995620E+05 -1.369968E+05  1.728113E+05  2.646978E-12 -1.819797E-12
       260   1 -4.773843E+05 -1.602736E+05 -1.275316E+05  1.620233E+05 -6.617445E-13  9.098987E-13
       260   2 -4.900433E+05 -1.677525E+05 -1.315592E+05  1.655323E+05 -4.797648E-12  9.926167E-13
       260   3 -5.005168E+05 -1.760738E+05 -1.353181E+05  1.690466E+05 -9.305782E-13 -3.618915E-13
       260   4 -4.560932E+05 -1.788760E+05 -1.269938E+05  1.645156E+05 -6.617445E-13  1.323489E-12
       260   5 -4.713696E+05 -1.824852E+05 -1.307710E+05  1.669566E+05 -1.323489E-12  9.926167E-13
       260   6 -4.858204E+05 -1.858984E+05 -1.343438E+05  1.695475E+05 -8.271806E-14  7.444626E-13
       260   7 -4.344881E+05 -1.966469E+05 -1.262270E+05  1.666658E+05 -1.323489E-12  4.632211E-12
       260   8 -4.532590E+05 -1.987795E+05 -1.304077E+05  1.689558E+05 -1.985233E-12  0.000000E+00
       260   9 -4.728938E+05 -2.006172E+05 -1.347022E+05  1.718957E+05 -3.143286E-12  0.000000E+00
       260  10 -4.773843E+05 -1.602736E+05 -1.275316E+05  1.620233E+05  0.000000E+00  8.271806E-14
       260  11 -4.900433E+05 -1.677525E+05 -1.315592E+05  1.655323E+05 -2.481542E-13  1.240771E-13
       260  12 -5.005168E+05 -1.760738E+05 -1.353181E+05  1.690466E+05  2.895132E-13  8.271806E-14
       260  13 -4.560932E+05 -1.788760E+05 -1.269938E+05  1.645156E+05 -3.308722E-13  0.000000E+00
       260  14 -4.713696E+05 -1.824852E+05 -1.307710E+05  1.669566E+05 -4.963084E-13 -3.308722E-13
       260  15 -4.858204E+05 -1.858984E+05 -1.343438E+05  1.695475E+05 -6.617445E-13  4.135903E-14
       260  16 -4.344881E+05 -1.966469E+05 -1.262270E+05  1.666658E+05  1.654361E-13 -1.654361E-13
       260  17 -4.532590E+05 -1.987795E+05 -1.304077E+05  1.689558E+05  0.000000E+00 -2.481542E-13
       260  18 -4.728938E+05 -2.006172E+05 -1.347022E+05  1.718957E+05  1.654361E-13 -1.137373E-13
       260  19 -4.773843E+05 -1.602736E+05 -1.275316E+05  1.620233E+05  2.646978E-12 -1.571643E-12
       260  20 -4.900433E+05 -1.677525E+05 -1.315592E+05  1.655323E+05  2.150670E-12  3.308722E-13
       260  21 -5.005168E+05 -1.760738E+05 -1.353181E+05  1.690466E+05  9.305782E-13 -1.623342E-12
       260  22 -4.560932E+05 -1.788760E+05 -1.269938E+05  1.645156E+05  1.985233E-12 -6.617445E-13
       260  23 -4.713696E+05 -1.824852E+05 -1.307710E+05  1.669566E+05 -1.323489E-12  3.308722E-13
       260  24 -4.858204E+05 -1.858984E+05 -1.343438E+05  1.695475E+05  2.729696E-12 -7.444626E-13
       260  25 -4.344881E+05 -1.966469E+05 -1.262270E+05  1.666658E+05  3.970467E-12 -3.308722E-12
       260  26 -4.532590E+05 -1.987795E+05 -1.304077E+05  1.689558E+05  1.985233E-12 -2.646978E-12
       260  27 -4.728938E+05 -2.006172E+05 -1.347022E+05  1.718957E+05  1.819797E-12 -1.323489E-12
       261   1 -1.040201E+05 -1.077636E+05 -4.235674E+04  2.566041E+03 -8.271806E-13  2.584939E-12
       261   2 -1.076486E+05 -1.101542E+05 -4.356057E+04  6.134463E+03 -1.695720E-12  2.254067E-12
       261   3 -1.113885E+05 -1.120242E+05 -4.468255E+04  9.857446E+03 -1.354508E-12  2.525486E-12
       261   4 -1.097950E+05 -1.139819E+05 -4.475537E+04  5.602626E+03 -9.926167E-13  2.398824E-12
       261   5 -1.122697E+05 -1.150094E+05 -4.545583E+04  8.200428E+03  9.926167E-13  1.654361E-13
       261   6 -1.145095E+05 -1.164182E+05 -4.618555E+04  1.056169E+04 -1.571643E-12  2.440183E-12
       261   7 -1.160105E+05 -1.212181E+05 -4.744574E+04  9.051793E+03 -2.316106E-12  2.646978E-12
       261   8 -1.167687E+05 -1.191577E+05 -4.718529E+04  1.024263E+04 -1.323489E-12  2.481542E-12
       261   9 -1.163288E+05 -1.174090E+05 -4.674758E+04  1.027028E+04 -7.031035E-13  2.688337E-12
       261  10 -1.040201E+05 -1.077636E+05 -4.235674E+04  2.566041E+03  8.271806E-14  0.000000E+00
       261  11 -1.076486E+05 -1.101542E+05 -4.356057E+04  6.134463E+03 -4.135903E-14 -4.135903E-14
       261  12 -1.113885E+05 -1.120242E+05 -4.468255E+04  9.857446E+03  3.101927E-14  0.000000E+00
       261  13 -1.097950E+05 -1.139819E+05 -4.475537E+04  5.602626E+03  0.000000E+00  0.000000E+00
       261  14 -1.122697E+05 -1.150094E+05 -4.545583E+04  8.200428E+03  0.000000E+00  2.067952E-14
       261  15 -1.145095E+05 -1.164182E+05 -4.618555E+04  1.056169E+04  6.203855E-14 -4.652891E-14
       261  16 -1.160105E+05 -1.212181E+05 -4.744574E+04  9.051793E+03 -1.654361E-13  2.067952E-14
       261  17 -1.167687E+05 -1.191577E+05 -4.718529E+04  1.024263E+04 -1.654361E-13  1.033976E-14
       261  18 -1.163288E+05 -1.174090E+05 -4.674758E+04  1.027028E+04 -1.033976E-14  2.584939E-15
       261  19 -1.040201E+05 -1.077636E+05 -4.235674E+04  2.566041E+03  2.150670E-12 -2.584939E-12
       261  20 -1.076486E+05 -1.101542E+05 -4.356057E+04  6.134463E+03  1.033976E-12 -2.171349E-12
       261  21 -1.113885E+05 -1.120242E+05 -4.468255E+04  9.857446E+03  1.354508E-12 -2.773640E-12
       261  22 -1.097950E+05 -1.139819E+05 -4.475537E+04  5.602626E+03  3.308722E-13 -2.398824E-12
       261  23 -1.122697E+05 -1.150094E+05 -4.545583E+04  8.200428E+03  3.308722E-13 -1.654361E-13
       261  24 -1.145095E+05 -1.164182E+05 -4.618555E+04  1.056169E+04  1.571643E-12 -2.274747E-12
       261  25 -1.160105E+05 -1.212181E+05 -4.744574E+04  9.051793E+03  2.316106E-12 -2.812414E-12
       261  26 -1.167687E+05 -1.191577E+05 -4.718529E+04  1.024263E+04  1.323489E-12 -2.646978E-12
       261  27 -1.163288E+05 -1.174090E+05 -4.674758E+04  1.027028E+04  1.364848E-12 -2.688337E-12
       262   1 -1.142000E+05 -1.144233E+05 -4.572466E+04  1.232060E+04  1.240771E-13  2.615959E-12
       262   2 -1.164313E+05 -1.163837E+05 -4.656300E+04  1.418095E+04  2.481542E-13  2.419503E-12
       262   3 -1.190228E+05 -1.181561E+05 -4.743579E+04  1.597776E+04 -2.129990E-12  2.707724E-12
       262   4 -1.156731E+05 -1.159272E+05 -4.632006E+04  1.131053E+04 -1.158053E-12  2.316106E-12
       262   5 -1.186144E+05 -1.168496E+05 -4.709282E+04  1.281008E+04 -4.963084E-13 -6.203855E-14
       262   6 -1.214900E+05 -1.177415E+05 -4.784629E+04  1.434340E+04 -2.895132E-13  2.310936E-12
       262   7 -1.187822E+05 -1.193433E+05 -4.762512E+04  1.136761E+04 -2.316106E-12  2.812414E-12
       262   8 -1.218951E+05 -1.184384E+05 -4.806669E+04  1.212548E+04 -1.985233E-12  2.605619E-12
       262   9 -1.245066E+05 -1.179412E+05 -4.848955E+04  1.315807E+04 -9.098987E-13  2.698677E-12
       262  10 -1.142000E+05 -1.144233E+05 -4.572466E+04  1.232060E+04  8.271806E-14 -1.033976E-14
       262  11 -1.164313E+05 -1.163837E+05 -4.656300E+04  1.418095E+04  0.000000E+00  5.169879E-15
       262  12 -1.190228E+05 -1.181561E+05 -4.743579E+04  1.597776E+04  5.169879E-14  1.292470E-15
       262  13 -1.156731E+05 -1.159272E+05 -4.632006E+04  1.131053E+04  0.000000E+00 -2.067952E-14
       262  14 -1.186144E+05 -1.168496E+05 -4.709282E+04  1.281008E+04  0.000000E+00 -4.135903E-14
       262  15 -1.214900E+05 -1.177415E+05 -4.784629E+04  1.434340E+04 -1.240771E-13 -7.754818E-15
       262  16 -1.187822E+05 -1.193433E+05 -4.762512E+04  1.136761E+04 -8.271806E-14 -1.033976E-14
       262  17 -1.218951E+05 -1.184384E+05 -4.806669E+04  1.212548E+04 -8.271806E-14 -2.067952E-14
       262  18 -1.245066E+05 -1.179412E+05 -4.848955E+04  1.315807E+04  7.237830E-14  1.938705E-14
       262  19 -1.142000E+05 -1.144233E+05 -4.572466E+04  1.232060E+04  5.376674E-13 -2.533241E-12
       262  20 -1.164313E+05 -1.163837E+05 -4.656300E+04  1.418095E+04  1.075335E-12 -2.419503E-12
       262  21 -1.190228E+05 -1.181561E+05 -4.743579E+04  1.597776E+04  1.468246E-12 -2.749083E-12
       262  22 -1.156731E+05 -1.159272E+05 -4.632006E+04  1.131053E+04  4.963084E-13 -2.316106E-12
       262  23 -1.186144E+05 -1.168496E+05 -4.709282E+04  1.281008E+04 -1.654361E-13 -2.067952E-14
       262  24 -1.214900E+05 -1.177415E+05 -4.784629E+04  1.434340E+04  9.512577E-13 -2.310936E-12
       262  25 -1.187822E+05 -1.193433E+05 -4.762512E+04  1.136761E+04  1.654361E-12 -2.895132E-12
       262  26 -1.218951E+05 -1.184384E+05 -4.806669E+04  1.212548E+04  1.323489E-12 -2.440183E-12
       262  27 -1.245066E+05 -1.179412E+05 -4.848955E+04  1.315807E+04  1.240771E-12 -2.698677E-12
       263   1 -1.204851E+05 -1.231880E+05 -4.873462E+04  1.102112E+04 -1.282130E-12  2.853773E-12
       263   2 -1.191674E+05 -1.204083E+05 -4.791515E+04  1.058814E+04 -7.651421E-13  2.564260E-12
       263   3 -1.197264E+05 -1.180827E+05 -4.756182E+04  1.114326E+04 -8.530300E-13  2.848603E-12
       263   4 -1.278931E+05 -1.218383E+05 -4.994628E+04  1.360307E+04 -1.323489E-12  2.233388E-12
       263   5 -1.251454E+05 -1.204207E+05 -4.911322E+04  1.282326E+04 -3.308722E-13 -1.654361E-13
       263   6 -1.230465E+05 -1.193781E+05 -4.848493E+04  1.247752E+04 -1.385528E-12  2.481542E-12
       263   7 -1.353057E+05 -1.207510E+05 -5.121135E+04  1.628887E+04 -9.926167E-13  2.895132E-12
       263   8 -1.310900E+05 -1.196696E+05 -5.015192E+04  1.494318E+04 -9.926167E-13  2.398824E-12
       263   9 -1.266242E+05 -1.185154E+05 -4.902792E+04  1.354897E+04 -4.135903E-13  2.791735E-12
       263  10 -1.204851E+05 -1.231880E+05 -4.873462E+04  1.102112E+04  4.135903E-14  0.000000E+00
       263  11 -1.191674E+05 -1.204083E+05 -4.791515E+04  1.058814E+04 -1.654361E-13 -4.135903E-14
       263  12 -1.197264E+05 -1.180827E+05 -4.756182E+04  1.114326E+04  4.135903E-14  2.584939E-15
       263  13 -1.278931E+05 -1.218383E+05 -4.994628E+04  1.360307E+04  0.000000E+00  4.135903E-14
       263  14 -1.251454E+05 -1.204207E+05 -4.911322E+04  1.282326E+04 -8.271806E-14 -2.067952E-14
       263  15 -1.230465E+05 -1.193781E+05 -4.848493E+04  1.247752E+04 -8.271806E-14 -3.618915E-14
       263  16 -1.353057E+05 -1.207510E+05 -5.121135E+04  1.628887E+04  0.000000E+00  2.067952E-14
       263  17 -1.310900E+05 -1.196696E+05 -5.015192E+04  1.494318E+04  0.000000E+00 -1.033976E-14
       263  18 -1.266242E+05 -1.185154E+05 -4.902792E+04  1.354897E+04  0.000000E+00  5.169879E-15
       263  19 -1.204851E+05 -1.231880E+05 -4.873462E+04  1.102112E+04  1.282130E-12 -2.853773E-12
       263  20 -1.191674E+05 -1.204083E+05 -4.791515E+04  1.058814E+04 -5.583469E-13 -2.398824E-12
       263  21 -1.197264E+05 -1.180827E+05 -4.756182E+04  1.114326E+04  8.530300E-13 -2.683167E-12
       263  22 -1.278931E+05 -1.218383E+05 -4.994628E+04  1.360307E+04  1.323489E-12 -2.564260E-12
       263  23 -1.251454E+05 -1.204207E+05 -4.911322E+04  1.282326E+04  3.308722E-13 -1.654361E-13
       263  24 -1.230465E+05 -1.193781E+05 -4.848493E+04  1.247752E+04  7.237830E-13 -2.398824E-12
       263  25 -1.353057E+05 -1.207510E+05 -5.121135E+04  1.628887E+04  1.654361E-12 -2.729696E-12
       263  26 -1.310900E+05 -1.196696E+05 -5.015192E+04  1.494318E+04  9.926167E-13 -2.233388E-12
       263  27 -1.266242E+05 -1.185154E+05 -4.902792E+04  1.354897E+04  1.075335E-12 -2.626298E-12
       264   1 -3.992688E+05 -2.517717E+05 -1.302081E+05  1.504587E+05 -4.632211E-12  6.617445E-12
       264   2 -3.887300E+05 -2.616785E+05 -1.300817E+05  1.450685E+05  4.963084E-12 -3.639595E-12
       264   3 -3.779211E+05 -2.702576E+05 -1.296357E+05  1.395054E+05 -3.474159E-12 -4.135903E-12
       264   4 -4.085429E+05 -2.538459E+05 -1.324778E+05  1.534508E+05  5.293956E-12 -2.382280E-11
       264   5 -3.983955E+05 -2.619543E+05 -1.320700E+05  1.488366E+05 -5.293956E-12 -1.191140E-11
       264   6 -3.880191E+05 -2.686675E+05 -1.313373E+05  1.441173E+05  9.926167E-13 -1.224227E-11
       264   7 -4.175882E+05 -2.561320E+05 -1.347440E+05  1.565360E+05  5.293956E-12 -5.293956E-12
       264   8 -4.077722E+05 -2.623490E+05 -1.340242E+05  1.527606E+05  0.000000E+00  5.293956E-12
       264   9 -3.977580E+05 -2.670078E+05 -1.329532E+05  1.490267E+05  3.970467E-12 -1.124966E-11
       264  10 -3.992688E+05 -2.517717E+05 -1.302081E+05  1.504587E+05  6.617445E-13 -6.617445E-13
       264  11 -3.887300E+05 -2.616785E+05 -1.300817E+05  1.450685E+05 -6.617445E-13  2.977850E-12
       264  12 -3.779211E+05 -2.702576E+05 -1.296357E+05  1.395054E+05  1.075335E-12 -1.488925E-12
       264  13 -4.085429E+05 -2.538459E+05 -1.324778E+05  1.534508E+05 -1.323489E-12  0.000000E+00
       264  14 -3.983955E+05 -2.619543E+05 -1.320700E+05  1.488366E+05  1.323489E-12 -1.985233E-12
       264  15 -3.880191E+05 -2.686675E+05 -1.313373E+05  1.441173E+05 -9.926167E-13 -1.654361E-12
       264  16 -4.175882E+05 -2.561320E+05 -1.347440E+05  1.565360E+05 -6.617445E-13  1.323489E-12
       264  17 -4.077722E+05 -2.623490E+05 -1.340242E+05  1.527606E+05  6.617445E-13 -1.323489E-12
       264  18 -3.977580E+05 -2.670078E+05 -1.329532E+05  1.490267E+05  9.098987E-13 -7.444626E-13
       264  19 -3.992688E+05 -2.517717E+05 -1.302081E+05  1.504587E+05 -6.617445E-13 -1.323489E-12
       264  20 -3.887300E+05 -2.616785E+05 -1.300817E+05  1.450685E+05 -1.025704E-11  3.639595E-12
       264  21 -3.779211E+05 -2.702576E+05 -1.296357E+05  1.395054E+05 -1.819797E-12  4.135903E-12
       264  22 -4.085429E+05 -2.538459E+05 -1.324778E+05  1.534508E+05  0.000000E+00  2.646978E-12
       264  23 -3.983955E+05 -2.619543E+05 -1.320700E+05  1.488366E+05  5.293956E-12  1.323489E-12
       264  24 -3.880191E+05 -2.686675E+05 -1.313373E+05  1.441173E+05 -6.286573E-12  6.948317E-12
       264  25 -4.175882E+05 -2.561320E+05 -1.347440E+05  1.565360E+05 -1.058791E-11  5.293956E-12
       264  26 -4.077722E+05 -2.623490E+05 -1.340242E+05  1.527606E+05  0.000000E+00  0.000000E+00
       264  27 -3.977580E+05 -2.670078E+05 -1.329532E+05  1.490267E+05 -3.970467E-12 -9.926167E-12
       265   1 -3.750669E+05 -2.742902E+05 -1.298714E+05  1.366852E+05  2.646978E-12 -7.940934E-12
       265   2 -3.733798E+05 -2.779512E+05 -1.302662E+05  1.347617E+05  3.639595E-12 -5.624828E-12
       265   3 -3.717129E+05 -2.796035E+05 -1.302633E+05  1.340865E+05 -5.293956E-12 -3.143286E-12
       265   4 -3.860516E+05 -2.716583E+05 -1.315420E+05  1.423944E+05  5.293956E-12 -1.058791E-11
       265   5 -3.850967E+05 -2.742101E+05 -1.318614E+05  1.429352E+05 -6.617445E-12  1.323489E-11
       265   6 -3.842743E+05 -2.758790E+05 -1.320307E+05  1.438529E+05  1.158053E-11  2.316106E-12
       265   7 -3.954954E+05 -2.687127E+05 -1.328416E+05  1.480825E+05  0.000000E+00  5.293956E-12
       265   8 -3.979452E+05 -2.714500E+05 -1.338790E+05  1.503878E+05  2.646978E-12 -2.646978E-12
       265   9 -3.996293E+05 -2.743260E+05 -1.347910E+05  1.521604E+05  3.308722E-12 -5.955700E-12
       265  10 -3.750669E+05 -2.742902E+05 -1.298714E+05  1.366852E+05  0.000000E+00  6.617445E-13
       265  11 -3.733798E+05 -2.779512E+05 -1.302662E+05  1.347617E+05 -6.617445E-13 -6.617445E-13
       265  12 -3.717129E+05 -2.796035E+05 -1.302633E+05  1.340865E+05 -2.481542E-13 -8.271806E-13
       265  13 -3.860516E+05 -2.716583E+05 -1.315420E+05  1.423944E+05 -1.323489E-12  0.000000E+00
       265  14 -3.850967E+05 -2.742101E+05 -1.318614E+05  1.429352E+05  0.000000E+00 -2.646978E-12
       265  15 -3.842743E+05 -2.758790E+05 -1.320307E+05  1.438529E+05  8.271806E-13  0.000000E+00
       265  16 -3.954954E+05 -2.687127E+05 -1.328416E+05  1.480825E+05  6.617445E-13 -6.617445E-13
       265  17 -3.979452E+05 -2.714500E+05 -1.338790E+05  1.503878E+05 -3.308722E-13 -1.654361E-12
       265  18 -3.996293E+05 -2.743260E+05 -1.347910E+05  1.521604E+05  4.963084E-13 -9.926167E-13
       265  19 -3.750669E+05 -2.742902E+05 -1.298714E+05  1.366852E+05 -7.940934E-12  7.940934E-12
       265  20 -3.733798E+05 -2.779512E+05 -1.302662E+05  1.347617E+05 -3.639595E-12  5.624828E-12
       265  21 -3.717129E+05 -2.796035E+05 -1.302633E+05  1.340865E+05  5.293956E-12  1.373120E-11
       265  22 -3.860516E+05 -2.716583E+05 -1.315420E+05  1.423944E+05 -5.293956E-12  2.117582E-11
       265  23 -3.850967E+05 -2.742101E+05 -1.318614E+05  1.429352E+05  6.617445E-12 -2.646978E-12
       265  24 -3.842743E+05 -2.758790E+05 -1.320307E+05  1.438529E+05 -1.158053E-11  8.271806E-12
       265  25 -3.954954E+05 -2.687127E+05 -1.328416E+05  1.480825E+05 -5.293956E-12  1.058791E-11
       265  26 -3.979452E+05 -2.714500E+05 -1.338790E+05  1.503878E+05 -2.646978E-12  2.646978E-12
       265  27 -3.996293E+05 -2.743260E+05 -1.347910E+05  1.521604E+05  7.279189E-12 -9.926167E-12
       266   1 -4.210961E+05 -2.573808E+05 -1.356954E+05  1.589025E+05  5.293956E-12  0.000000E+00
       266   2 -4.109020E+05 -2.624391E+05 -1.346682E+05  1.551212E+05  3.308722E-13 -2.646978E-12
       266   3 -4.008654E+05 -2.679696E+05 -1.337670E+05  1.512215E+05  3.308722E-12  1.381392E-11
       266   4 -4.262100E+05 -2.604596E+05 -1.373339E+05  1.625202E+05  1.058791E-11  0.000000E+00
       266   5 -4.147312E+05 -2.648958E+05 -1.359254E+05  1.580570E+05  1.323489E-12  0.000000E+00
       266   6 -4.038393E+05 -2.698258E+05 -1.347330E+05  1.532109E+05  4.632211E-12 -3.639595E-12
       266   7 -4.313942E+05 -2.639443E+05 -1.390677E+05  1.662878E+05  5.293956E-12  1.058791E-11
       266   8 -4.190645E+05 -2.679410E+05 -1.374011E+05  1.613180E+05  1.323489E-11 -2.382280E-11
       266   9 -4.077539E+05 -2.724854E+05 -1.360478E+05  1.557877E+05 -6.617445E-13  4.632211E-12
       266  10 -4.210961E+05 -2.573808E+05 -1.356954E+05  1.589025E+05 -1.323489E-12 -6.617445E-13
       266  11 -4.109020E+05 -2.624391E+05 -1.346682E+05  1.551212E+05  6.617445E-13  3.308722E-13
       266  12 -4.008654E+05 -2.679696E+05 -1.337670E+05  1.512215E+05 -4.963084E-13 -1.654361E-13
       266  13 -4.262100E+05 -2.604596E+05 -1.373339E+05  1.625202E+05  0.000000E+00 -1.323489E-12
       266  14 -4.147312E+05 -2.648958E+05 -1.359254E+05  1.580570E+05 -3.970467E-12  2.646978E-12
       266  15 -4.038393E+05 -2.698258E+05 -1.347330E+05  1.532109E+05 -2.481542E-12  1.158053E-12
       266  16 -4.313942E+05 -2.639443E+05 -1.390677E+05  1.662878E+05 -6.617445E-13 -6.617445E-13
       266  17 -4.190645E+05 -2.679410E+05 -1.374011E+05  1.613180E+05  0.000000E+00 -3.308722E-13
       266  18 -4.077539E+05 -2.724854E+05 -1.360478E+05  1.557877E+05 -1.819797E-12  1.323489E-12
       266  19 -4.210961E+05 -2.573808E+05 -1.356954E+05  1.589025E+05 -1.058791E-11  5.293956E-12
       266  20 -4.109020E+05 -2.624391E+05 -1.346682E+05  1.551212E+05 -3.308722E-13 -2.646978E-12
       266  21 -4.008654E+05 -2.679696E+05 -1.337670E+05  1.512215E+05  1.985233E-12 -3.226004E-12
       266  22 -4.262100E+05 -2.604596E+05 -1.373339E+05  1.625202E+05 -1.058791E-11 -5.293956E-12
       266  23 -4.147312E+05 -2.648958E+05 -1.359254E+05  1.580570E+05  3.970467E-12  0.000000E+00
       266  24 -4.038393E+05 -2.698258E+05 -1.347330E+05  1.532109E+05 -4.632211E-12  3.639595E-12
       266  25 -4.313942E+05 -2.639443E+05 -1.390677E+05  1.662878E+05 -1.058791E-11  0.000000E+00
       266  26 -4.190645E+05 -2.679410E+05 -1.374011E+05  1.613180E+05 -7.940934E-12 -2.646978E-12
       266  27 -4.077539E+05 -2.724854E+05 -1.360478E+05  1.557877E+05  6.617445E-13  6.617445E-13
       267   1 -3.209472E+05 -2.704168E+05 -1.182728E+05  8.386175E+04  6.617445E-12  2.646978E-12
       267   2 -3.295503E+05 -2.731745E+05 -1.205449E+05  9.476406E+04  1.257315E-11 -1.058791E-11
       267   3 -3.395324E+05 -2.772192E+05 -1.233503E+05  1.048544E+05 -3.308722E-13  2.332649E-11
       267   4 -3.175819E+05 -2.755974E+05 -1.186359E+05  7.932039E+04  7.940934E-12  0.000000E+00
       267   5 -3.254593E+05 -2.769751E+05 -1.204869E+05  8.951108E+04 -2.646978E-12  2.117582E-11
       267   6 -3.340346E+05 -2.787289E+05 -1.225527E+05  9.939985E+04  8.602678E-12  8.602678E-12
       267   7 -3.140281E+05 -2.801238E+05 -1.188304E+05  7.465353E+04 -5.293956E-12 -2.117582E-11
       267   8 -3.209546E+05 -2.808414E+05 -1.203592E+05  8.403536E+04  1.058791E-11  0.000000E+00
       267   9 -3.273253E+05 -2.808884E+05 -1.216427E+05  9.388993E+04  1.323489E-11 -3.970467E-12
       267  10 -3.209472E+05 -2.704168E+05 -1.182728E+05  8.386175E+04  6.617445E-13  0.000000E+00
       267  11 -3.295503E+05 -2.731745E+05 -1.205449E+05  9.476406E+04 -1.323489E-12  0.000000E+00
       267  12 -3.395324E+05 -2.772192E+05 -1.233503E+05  1.048544E+05 -1.737079E-12  3.308722E-13
       267  13 -3.175819E+05 -2.755974E+05 -1.186359E+05  7.932039E+04  0.000000E+00 -2.646978E-12
       267  14 -3.254593E+05 -2.769751E+05 -1.204869E+05  8.951108E+04 -6.617445E-13  2.646978E-12
       267  15 -3.340346E+05 -2.787289E+05 -1.225527E+05  9.939985E+04  0.000000E+00 -1.654361E-12
       267  16 -3.140281E+05 -2.801238E+05 -1.188304E+05  7.465353E+04  0.000000E+00  2.646978E-12
       267  17 -3.209546E+05 -2.808414E+05 -1.203592E+05  8.403536E+04 -3.308722E-13  1.323489E-12
       267  18 -3.273253E+05 -2.808884E+05 -1.216427E+05  9.388993E+04 -1.323489E-12 -2.812414E-12
       267  19 -3.209472E+05 -2.704168E+05 -1.182728E+05  8.386175E+04 -1.323489E-12 -2.382280E-11
       267  20 -3.295503E+05 -2.731745E+05 -1.205449E+05  9.476406E+04 -1.985233E-12  1.058791E-11
       267  21 -3.395324E+05 -2.772192E+05 -1.233503E+05  1.048544E+05 -4.963084E-12 -2.332649E-11
       267  22 -3.175819E+05 -2.755974E+05 -1.186359E+05  7.932039E+04  2.646978E-12  0.000000E+00
       267  23 -3.254593E+05 -2.769751E+05 -1.204869E+05  8.951108E+04 -7.940934E-12  0.000000E+00
       267  24 -3.340346E+05 -2.787289E+05 -1.225527E+05  9.939985E+04 -3.308722E-12  1.985233E-12
       267  25 -3.140281E+05 -2.801238E+05 -1.188304E+05  7.465353E+04  0.000000E+00  1.058791E-11
       267  26 -3.209546E+05 -2.808414E+05 -1.203592E+05  8.403536E+04 -5.293956E-12  0.000000E+00
       267  27 -3.273253E+05 -2.808884E+05 -1.216427E+05  9.388993E+04 -1.323489E-11  1.455838E-11
       268   1 -3.441933E+05 -2.789894E+05 -1.246365E+05  1.103540E+05  1.522012E-11  2.646978E-12
       268   2 -3.515316E+05 -2.796021E+05 -1.262267E+05  1.187928E+05  3.639595E-12  9.926167E-12
       268   3 -3.602847E+05 -2.804870E+05 -1.281543E+05  1.259762E+05  3.887749E-12 -8.437242E-12
       268   4 -3.362770E+05 -2.803380E+05 -1.233230E+05  1.035805E+05  2.646978E-12  0.000000E+00
       268   5 -3.432133E+05 -2.821178E+05 -1.250662E+05  1.093315E+05 -2.646978E-12  1.058791E-11
       268   6 -3.499632E+05 -2.829678E+05 -1.265862E+05  1.151341E+05 -1.025704E-11 -1.654361E-11
       268   7 -3.310235E+05 -2.819286E+05 -1.225904E+05  9.713037E+04  5.293956E-12 -1.058791E-11
       268   8 -3.344336E+05 -2.845387E+05 -1.237945E+05  9.985217E+04  0.000000E+00 -2.646978E-11
       268   9 -3.365006E+05 -2.847163E+05 -1.242434E+05  1.044832E+05  1.985233E-12  2.646978E-12
       268  10 -3.441933E+05 -2.789894E+05 -1.246365E+05  1.103540E+05  0.000000E+00  0.000000E+00
       268  11 -3.515316E+05 -2.796021E+05 -1.262267E+05  1.187928E+05 -1.654361E-12 -1.323489E-12
       268  12 -3.602847E+05 -2.804870E+05 -1.281543E+05  1.259762E+05 -8.271806E-14 -4.963084E-13
       268  13 -3.362770E+05 -2.803380E+05 -1.233230E+05  1.035805E+05  0.000000E+00  2.646978E-12
       268  14 -3.432133E+05 -2.821178E+05 -1.250662E+05  1.093315E+05  6.617445E-13  2.646978E-12
       268  15 -3.499632E+05 -2.829678E+05 -1.265862E+05  1.151341E+05  2.150670E-12 -3.308722E-13
       268  16 -3.310235E+05 -2.819286E+05 -1.225904E+05  9.713037E+04 -6.617445E-13  0.000000E+00
       268  17 -3.344336E+05 -2.845387E+05 -1.237945E+05  9.985217E+04 -1.654361E-12  1.323489E-12
       268  18 -3.365006E+05 -2.847163E+05 -1.242434E+05  1.044832E+05 -1.158053E-12  1.819797E-12
       268  19 -3.441933E+05 -2.789894E+05 -1.246365E+05  1.103540E+05 -4.632211E-12  7.940934E-12
       268  20 -3.515316E+05 -2.796021E+05 -1.262267E+05  1.187928E+05 -3.639595E-12 -9.926167E-12
       268  21 -3.602847E+05 -2.804870E+05 -1.281543E+05  1.259762E+05 -3.887749E-12 -2.150670E-12
       268  22 -3.362770E+05 -2.803380E+05 -1.233230E+05  1.035805E+05 -7.940934E-12  0.000000E+00
       268  23 -3.432133E+05 -2.821178E+05 -1.250662E+05  1.093315E+05  2.646978E-12 -1.058791E-11
       268  24 -3.499632E+05 -2.829678E+05 -1.265862E+05  1.151341E+05 -3.308722E-13  5.955700E-12
       268  25 -3.310235E+05 -2.819286E+05 -1.225904E+05  9.713037E+04 -5.293956E-12  2.117582E-11
       268  26 -3.344336E+05 -2.845387E+05 -1.237945E+05  9.985217E+04 -5.293956E-12  5.293956E-12
       268  27 -3.365006E+05 -2.847163E+05 -1.242434E+05  1.044832E+05 -1.985233E-12  7.940934E-12
       269   1 -3.127499E+05 -2.825457E+05 -1.190591E+05  7.342302E+04  1.191140E-11 -1.124966E-11
       269   2 -3.198336E+05 -2.826079E+05 -1.204883E+05  8.315053E+04 -6.617445E-13  4.632211E-12
       269   3 -3.280841E+05 -2.833738E+05 -1.222916E+05  9.231687E+04  2.192029E-12 -3.159830E-11
       269   4 -3.119810E+05 -2.865946E+05 -1.197151E+05  7.396034E+04  1.323489E-11 -2.646978E-11
       269   5 -3.199940E+05 -2.855998E+05 -1.211188E+05  8.476390E+04  5.293956E-12 -1.058791E-11
       269   6 -3.286937E+05 -2.850139E+05 -1.227415E+05  9.519689E+04 -9.926167E-13 -1.985233E-12
       269   7 -3.110831E+05 -2.899538E+05 -1.202074E+05  7.466561E+04 -5.293956E-12  1.058791E-11
       269   8 -3.200398E+05 -2.881311E+05 -1.216342E+05  8.641601E+04  1.323489E-11 -5.293956E-12
       269   9 -3.293007E+05 -2.865133E+05 -1.231628E+05  9.793031E+04  4.963084E-12 -1.058791E-11
       269  10 -3.127499E+05 -2.825457E+05 -1.190591E+05  7.342302E+04  6.617445E-13  1.323489E-12
       269  11 -3.198336E+05 -2.826079E+05 -1.204883E+05  8.315053E+04  6.617445E-13  1.323489E-12
       269  12 -3.280841E+05 -2.833738E+05 -1.222916E+05  9.231687E+04 -7.444626E-13  1.654361E-12
       269  13 -3.119810E+05 -2.865946E+05 -1.197151E+05  7.396034E+04  0.000000E+00  2.646978E-12
       269  14 -3.199940E+05 -2.855998E+05 -1.211188E+05  8.476390E+04 -3.308722E-12  5.293956E-12
       269  15 -3.286937E+05 -2.850139E+05 -1.227415E+05  9.519689E+04 -4.963084E-13 -6.617445E-13
       269  16 -3.110831E+05 -2.899538E+05 -1.202074E+05  7.466561E+04  0.000000E+00  0.000000E+00
       269  17 -3.200398E+05 -2.881311E+05 -1.216342E+05  8.641601E+04  1.323489E-12  1.985233E-12
       269  18 -3.293007E+05 -2.865133E+05 -1.231628E+05  9.793031E+04  1.488925E-12  9.926167E-13
       269  19 -3.127499E+05 -2.825457E+05 -1.190591E+05  7.342302E+04 -1.191140E-11  1.124966E-11
       269  20 -3.198336E+05 -2.826079E+05 -1.204883E+05  8.315053E+04 -4.632211E-12  5.955700E-12
       269  21 -3.280841E+05 -2.833738E+05 -1.222916E+05  9.231687E+04  8.395883E-12  2.101039E-11
       269  22 -3.119810E+05 -2.865946E+05 -1.197151E+05  7.396034E+04 -2.646978E-12  1.588187E-11
       269  23 -3.199940E+05 -2.855998E+05 -1.211188E+05  8.476390E+04  0.000000E+00 -1.058791E-11
       269  24 -3.286937E+05 -2.850139E+05 -1.227415E+05  9.519689E+04 -4.301339E-12 -8.602678E-12
       269  25 -3.110831E+05 -2.899538E+05 -1.202074E+05  7.466561E+04 -5.293956E-12  0.000000E+00
       269  26 -3.200398E+05 -2.881311E+05 -1.216342E+05  8.641601E+04 -1.323489E-11  1.588187E-11
       269  27 -3.293007E+05 -2.865133E+05 -1.231628E+05  9.793031E+04 -4.963084E-12  1.058791E-11
       270   1 -4.249607E+04 -1.969634E+05 -4.789190E+04  2.256732E+05  0.000000E+00 -1.985233E-12
       270   2 -1.050165E+05 -2.200196E+05 -6.500722E+04  1.892067E+05 -8.685396E-13  1.422751E-11
       270   3 -1.682255E+05 -2.482557E+05 -8.329622E+04  1.505172E+05 -3.308722E-13  1.861156E-12
       270   4 -9.899984E+04 -2.085356E+05 -6.150709E+04  2.042136E+05  9.926167E-13 -3.970467E-12
       270   5 -1.439483E+05 -2.347965E+05 -7.574895E+04  1.767836E+05 -1.323489E-12  5.293956E-12
       270   6 -1.850401E+05 -2.444214E+05 -8.589230E+04  1.558263E+05 -7.444626E-13 -9.264423E-12
       270   7 -1.601307E+05 -2.056497E+05 -7.315609E+04  1.806589E+05  1.323489E-12 -2.646978E-12
       270   8 -1.739013E+05 -2.480905E+05 -8.439835E+04  1.620055E+05 -9.926167E-13 -1.323489E-12
       270   9 -1.682069E+05 -2.410884E+05 -8.185906E+04  1.655438E+05 -7.444626E-13 -3.639595E-12
       270  10 -4.249607E+04 -1.969634E+05 -4.789190E+04  2.256732E+05 -1.654361E-13  6.617445E-13
       270  11 -1.050165E+05 -2.200196E+05 -6.500722E+04  1.892067E+05  0.000000E+00 -1.323489E-12
       270  12 -1.682255E+05 -2.482557E+05 -8.329622E+04  1.505172E+05 -2.067952E-14  1.571643E-12
       270  13 -9.899984E+04 -2.085356E+05 -6.150709E+04  2.042136E+05  0.000000E+00 -1.323489E-12
       270  14 -1.439483E+05 -2.347965E+05 -7.574895E+04  1.767836E+05 -6.617445E-13 -2.646978E-12
       270  15 -1.850401E+05 -2.444214E+05 -8.589230E+04  1.558263E+05  8.271806E-14 -8.271806E-13
       270  16 -1.601307E+05 -2.056497E+05 -7.315609E+04  1.806589E+05 -4.963084E-13 -6.617445E-13
       270  17 -1.739013E+05 -2.480905E+05 -8.439835E+04  1.620055E+05  8.271806E-14 -3.308722E-13
       270  18 -1.682069E+05 -2.410884E+05 -8.185906E+04  1.655438E+05 -4.135903E-14  2.481542E-13
       270  19 -4.249607E+04 -1.969634E+05 -4.789190E+04  2.256732E+05  0.000000E+00  1.257315E-11
       270  20 -1.050165E+05 -2.200196E+05 -6.500722E+04  1.892067E+05 -4.549493E-13 -3.639595E-12
       270  21 -1.682255E+05 -2.482557E+05 -8.329622E+04  1.505172E+05  3.308722E-13 -1.861156E-12
       270  22 -9.899984E+04 -2.085356E+05 -6.150709E+04  2.042136E+05  3.308722E-13 -1.323489E-12
       270  23 -1.439483E+05 -2.347965E+05 -7.574895E+04  1.767836E+05  0.000000E+00  0.000000E+00
       270  24 -1.850401E+05 -2.444214E+05 -8.589230E+04  1.558263E+05 -5.790264E-13 -1.323489E-12
       270  25 -1.601307E+05 -2.056497E+05 -7.315609E+04  1.806589E+05 -1.323489E-12 -2.646978E-12
       270  26 -1.739013E+05 -2.480905E+05 -8.439835E+04  1.620055E+05 -1.654361E-12 -9.264423E-12
       270  27 -1.682069E+05 -2.410884E+05 -8.185906E+04  1.655438E+05 -1.902515E-12 -1.654361E-12
       271   1 -1.749614E+05 -2.595654E+05 -8.690537E+04  1.538472E+05  2.564260E-12 -8.602678E-12
       271   2 -1.879217E+05 -2.575839E+05 -8.910112E+04  1.627107E+05  1.613002E-12 -2.977850E-12
       271   3 -1.987468E+05 -2.591504E+05 -9.157945E+04  1.685928E+05  2.895132E-12  7.031035E-13
       271   4 -1.711340E+05 -2.446025E+05 -8.314730E+04  1.642192E+05 -1.654361E-12 -2.646978E-12
       271   5 -1.823226E+05 -2.510457E+05 -8.667367E+04  1.666883E+05  3.308722E-13  1.985233E-12
       271   6 -1.917239E+05 -2.594595E+05 -9.023668E+04  1.675040E+05  1.116694E-12  3.805031E-12
       271   7 -1.851998E+05 -2.327373E+05 -8.358743E+04  1.718563E+05  1.323489E-12  1.058791E-11
       271   8 -1.895249E+05 -2.482652E+05 -8.755802E+04  1.675686E+05  2.646978E-12 -1.323489E-12
       271   9 -1.941010E+05 -2.635505E+05 -9.153029E+04  1.634300E+05  3.308722E-13  4.301339E-12
       271  10 -1.749614E+05 -2.595654E+05 -8.690537E+04  1.538472E+05  0.000000E+00  6.617445E-13
       271  11 -1.879217E+05 -2.575839E+05 -8.910112E+04  1.627107E+05  1.654361E-13 -6.617445E-13
       271  12 -1.987468E+05 -2.591504E+05 -9.157945E+04  1.685928E+05  2.067952E-14  0.000000E+00
       271  13 -1.711340E+05 -2.446025E+05 -8.314730E+04  1.642192E+05  0.000000E+00 -1.323489E-12
       271  14 -1.823226E+05 -2.510457E+05 -8.667367E+04  1.666883E+05  0.000000E+00 -1.323489E-12
       271  15 -1.917239E+05 -2.594595E+05 -9.023668E+04  1.675040E+05  8.271806E-14  0.000000E+00
       271  16 -1.851998E+05 -2.327373E+05 -8.358743E+04  1.718563E+05 -1.654361E-13 -6.617445E-13
       271  17 -1.895249E+05 -2.482652E+05 -8.755802E+04  1.675686E+05  1.654361E-13  0.000000E+00
       271  18 -1.941010E+05 -2.635505E+05 -9.153029E+04  1.634300E+05  2.274747E-13 -1.240771E-13
       271  19 -1.749614E+05 -2.595654E+05 -8.690537E+04  1.538472E+05 -2.564260E-12  5.955700E-12
       271  20 -1.879217E+05 -2.575839E+05 -8.910112E+04  1.627107E+05 -2.895132E-13  2.977850E-12
       271  21 -1.987468E+05 -2.591504E+05 -9.157945E+04  1.685928E+05 -2.481542E-13 -7.031035E-13
       271  22 -1.711340E+05 -2.446025E+05 -8.314730E+04  1.642192E+05 -9.926167E-13  2.646978E-12
       271  23 -1.823226E+05 -2.510457E+05 -8.667367E+04  1.666883E+05  9.926167E-13 -1.985233E-12
       271  24 -1.917239E+05 -2.594595E+05 -9.023668E+04  1.675040E+05 -4.549493E-13  4.135903E-12
       271  25 -1.851998E+05 -2.327373E+05 -8.358743E+04  1.718563E+05  0.000000E+00  0.000000E+00
       271  26 -1.895249E+05 -2.482652E+05 -8.755802E+04  1.675686E+05 -1.323489E-12  1.323489E-12
       271  27 -1.941010E+05 -2.635505E+05 -9.153029E+04  1.634300E+05 -9.926167E-13  9.926167E-13
       272   1 -1.830673E+05 -2.238850E+05 -8.139047E+04  1.736336E+05 -3.308722E-13 -1.654361E-12
       272   2 -1.707551E+05 -2.340807E+05 -8.096718E+04  1.704271E+05 -6.203855E-13  1.488925E-12
       272   3 -1.639132E+05 -2.509759E+05 -8.297783E+04  1.618402E+05  2.398824E-12  1.406207E-12
       272   4 -1.888118E+05 -2.375419E+05 -8.527073E+04  1.658507E+05 -3.308722E-13  5.293956E-12
       272   5 -1.826517E+05 -2.444564E+05 -8.542162E+04  1.661235E+05  4.963084E-13  2.646978E-12
       272   6 -1.820635E+05 -2.557016E+05 -8.755300E+04  1.631208E+05  1.654361E-12 -8.271806E-13
       272   7 -1.955246E+05 -2.492450E+05 -8.895392E+04  1.580293E+05 -6.617445E-13  2.646978E-12
       272   8 -1.932012E+05 -2.533161E+05 -8.930345E+04  1.609511E+05  2.316106E-12 -5.293956E-12
       272   9 -1.956328E+05 -2.601071E+05 -9.114798E+04  1.618580E+05  1.158053E-12  4.963084E-12
       272  10 -1.830673E+05 -2.238850E+05 -8.139047E+04  1.736336E+05  0.000000E+00 -6.617445E-13
       272  11 -1.707551E+05 -2.340807E+05 -8.096718E+04  1.704271E+05  8.271806E-14  0.000000E+00
       272  12 -1.639132E+05 -2.509759E+05 -8.297783E+04  1.618402E+05 -5.169879E-14 -2.067952E-13
       272  13 -1.888118E+05 -2.375419E+05 -8.527073E+04  1.658507E+05  0.000000E+00  0.000000E+00
       272  14 -1.826517E+05 -2.444564E+05 -8.542162E+04  1.661235E+05  0.000000E+00  6.617445E-13
       272  15 -1.820635E+05 -2.557016E+05 -8.755300E+04  1.631208E+05  2.895132E-13 -1.654361E-13
       272  16 -1.955246E+05 -2.492450E+05 -8.895392E+04  1.580293E+05 -8.271806E-14 -6.617445E-13
       272  17 -1.932012E+05 -2.533161E+05 -8.930345E+04  1.609511E+05  1.654361E-13  1.985233E-12
       272  18 -1.956328E+05 -2.601071E+05 -9.114798E+04  1.618580E+05 -5.169879E-14  4.549493E-13
       272  19 -1.830673E+05 -2.238850E+05 -8.139047E+04  1.736336E+05  3.308722E-13 -8.933551E-12
       272  20 -1.707551E+05 -2.340807E+05 -8.096718E+04  1.704271E+05 -7.031035E-13 -1.488925E-12
       272  21 -1.639132E+05 -2.509759E+05 -8.297783E+04  1.618402E+05 -1.075335E-12  3.887749E-12
       272  22 -1.888118E+05 -2.375419E+05 -8.527073E+04  1.658507E+05 -1.654361E-12  0.000000E+00
       272  23 -1.826517E+05 -2.444564E+05 -8.542162E+04  1.661235E+05  8.271806E-13 -5.293956E-12
       272  24 -1.820635E+05 -2.557016E+05 -8.755300E+04  1.631208E+05 -1.654361E-12  6.121137E-12
       272  25 -1.955246E+05 -2.492450E+05 -8.895392E+04  1.580293E+05  0.000000E+00 -2.646978E-12
       272  26 -1.932012E+05 -2.533161E+05 -8.930345E+04  1.609511E+05 -9.926167E-13  2.646978E-12
       272  27 -1.956328E+05 -2.601071E+05 -9.114798E+04  1.618580E+05  1.654361E-13 -4.963084E-12
       273   1 -1.982828E+05 -2.781785E+05 -9.529226E+04  2.043266E+05  4.963084E-13  5.955700E-12
       273   2 -2.012954E+05 -2.786380E+05 -9.598668E+04  1.945934E+05  3.308722E-13  1.488925E-12
       273   3 -2.044470E+05 -2.768698E+05 -9.626335E+04  1.852405E+05  5.583469E-13  1.240771E-12
       273   4 -2.113932E+05 -2.643654E+05 -9.515171E+04  2.057012E+05  6.617445E-13  1.985233E-12
       273   5 -2.104530E+05 -2.672327E+05 -9.553713E+04  1.971081E+05 -4.963084E-13  6.617445E-13
       273   6 -2.093184E+05 -2.680675E+05 -9.547719E+04  1.890871E+05  2.067952E-12 -1.075335E-12
       273   7 -2.269276E+05 -2.510315E+05 -9.559181E+04  2.065129E+05  6.617445E-13 -1.323489E-12
       273   8 -2.221990E+05 -2.564798E+05 -9.573577E+04  1.988114E+05  6.617445E-13 -1.323489E-12
       273   9 -2.169018E+05 -2.602521E+05 -9.543078E+04  1.918190E+05  4.135903E-13 -2.481542E-12
       273  10 -1.982828E+05 -2.781785E+05 -9.529226E+04  2.043266E+05 -1.654361E-13  3.308722E-13
       273  11 -2.012954E+05 -2.786380E+05 -9.598668E+04  1.945934E+05  0.000000E+00  6.617445E-13
       273  12 -2.044470E+05 -2.768698E+05 -9.626335E+04  1.852405E+05 -4.135903E-14 -2.481542E-13
       273  13 -2.113932E+05 -2.643654E+05 -9.515171E+04  2.057012E+05  0.000000E+00  6.617445E-13
       273  14 -2.104530E+05 -2.672327E+05 -9.553713E+04  1.971081E+05 -4.963084E-13  0.000000E+00
       273  15 -2.093184E+05 -2.680675E+05 -9.547719E+04  1.890871E+05  1.447566E-13 -8.271806E-14
       273  16 -2.269276E+05 -2.510315E+05 -9.559181E+04  2.065129E+05  8.271806E-14  3.308722E-13
       273  17 -2.221990E+05 -2.564798E+05 -9.573577E+04  1.988114E+05  8.271806E-14  3.308722E-13
       273  18 -2.169018E+05 -2.602521E+05 -9.543078E+04  1.918190E+05  1.757759E-13  6.203855E-13
       273  19 -1.982828E+05 -2.781785E+05 -9.529226E+04  2.043266E+05 -4.963084E-13 -3.308722E-12
       273  20 -2.012954E+05 -2.786380E+05 -9.598668E+04  1.945934E+05 -1.654361E-12  1.158053E-12
       273  21 -2.044470E+05 -2.768698E+05 -9.626335E+04  1.852405E+05 -1.220091E-12 -1.240771E-12
       273  22 -2.113932E+05 -2.643654E+05 -9.515171E+04  2.057012E+05  0.000000E+00  6.617445E-13
       273  23 -2.104530E+05 -2.672327E+05 -9.553713E+04  1.971081E+05 -1.654361E-13 -6.617445E-13
       273  24 -2.093184E+05 -2.680675E+05 -9.547719E+04  1.890871E+05 -8.271806E-14  1.075335E-12
       273  25 -2.269276E+05 -2.510315E+05 -9.559181E+04  2.065129E+05 -6.617445E-13 -1.323489E-12
       273  26 -2.221990E+05 -2.564798E+05 -9.573577E+04  1.988114E+05 -6.617445E-13 -1.323489E-12
       273  27 -2.169018E+05 -2.602521E+05 -9.543078E+04  1.918190E+05 -4.135903E-13 -1.654361E-13
       274   1 -2.016734E+05 -2.727773E+05 -9.489014E+04  1.822914E+05  1.075335E-12  2.316106E-12
       274   2 -2.009398E+05 -2.680159E+05 -9.379114E+04  1.768324E+05 -7.031035E-13  2.812414E-12
       274   3 -1.998995E+05 -2.643005E+05 -9.284000E+04  1.713592E+05  1.819797E-12  5.376674E-13
       274   4 -2.096407E+05 -2.661823E+05 -9.516461E+04  1.853495E+05 -3.308722E-13  1.323489E-12
       274   5 -2.112902E+05 -2.615419E+05 -9.456643E+04  1.802324E+05 -3.308722E-13  6.617445E-12
       274   6 -2.121163E+05 -2.579318E+05 -9.400961E+04  1.749869E+05 -2.067952E-13 -4.135903E-12
       274   7 -2.167569E+05 -2.592392E+05 -9.519922E+04  1.887220E+05 -1.323489E-12 -1.323489E-12
       274   8 -2.215887E+05 -2.549223E+05 -9.530221E+04  1.837751E+05  1.985233E-12  0.000000E+00
       274   9 -2.247843E+05 -2.515720E+05 -9.527127E+04  1.785967E+05  2.150670E-12 -9.926167E-13
       274  10 -2.016734E+05 -2.727773E+05 -9.489014E+04  1.822914E+05 -8.271806E-14  3.308722E-13
       274  11 -2.009398E+05 -2.680159E+05 -9.379114E+04  1.768324E+05 -1.240771E-13  1.323489E-12
       274  12 -1.998995E+05 -2.643005E+05 -9.284000E+04  1.713592E+05 -4.135903E-14 -4.135903E-14
       274  13 -2.096407E+05 -2.661823E+05 -9.516461E+04  1.853495E+05 -1.654361E-13  0.000000E+00
       274  14 -2.112902E+05 -2.615419E+05 -9.456643E+04  1.802324E+05  3.308722E-13 -3.308722E-13
       274  15 -2.121163E+05 -2.579318E+05 -9.400961E+04  1.749869E+05 -3.722313E-13  7.444626E-13
       274  16 -2.167569E+05 -2.592392E+05 -9.519922E+04  1.887220E+05  2.481542E-13  6.617445E-13
       274  17 -2.215887E+05 -2.549223E+05 -9.530221E+04  1.837751E+05 -2.067952E-13 -1.819797E-12
       274  18 -2.247843E+05 -2.515720E+05 -9.527127E+04  1.785967E+05 -5.169879E-14 -4.549493E-13
       274  19 -2.016734E+05 -2.727773E+05 -9.489014E+04  1.822914E+05  2.481542E-13 -2.316106E-12
       274  20 -2.009398E+05 -2.680159E+05 -9.379114E+04  1.768324E+05 -6.203855E-13 -1.654361E-13
       274  21 -1.998995E+05 -2.643005E+05 -9.284000E+04  1.713592E+05 -1.158053E-12 -3.184645E-12
       274  22 -2.096407E+05 -2.661823E+05 -9.516461E+04  1.853495E+05 -2.316106E-12 -1.323489E-12
       274  23 -2.112902E+05 -2.615419E+05 -9.456643E+04  1.802324E+05  3.308722E-13  3.970467E-12
       274  24 -2.121163E+05 -2.579318E+05 -9.400961E+04  1.749869E+05 -2.440183E-12  1.488925E-12
       274  25 -2.167569E+05 -2.592392E+05 -9.519922E+04  1.887220E+05  0.000000E+00  1.323489E-12
       274  26 -2.215887E+05 -2.549223E+05 -9.530221E+04  1.837751E+05 -6.617445E-13  2.646978E-12
       274  27 -2.247843E+05 -2.515720E+05 -9.527127E+04  1.785967E+05 -8.271806E-13  3.639595E-12
       275   1 -2.358817E+05 -2.445417E+05 -9.608469E+04  2.042463E+05  1.075335E-12  3.805031E-12
       275   2 -2.285879E+05 -2.510141E+05 -9.592040E+04  1.978882E+05  9.098987E-13  0.000000E+00
       275   3 -2.210232E+05 -2.560992E+05 -9.542448E+04  1.916094E+05  1.447566E-12 -2.192029E-12
       275   4 -2.496227E+05 -2.366418E+05 -9.725289E+04  1.947833E+05 -6.617445E-13 -1.323489E-12
       275   5 -2.376248E+05 -2.442688E+05 -9.637872E+04  1.902348E+05  0.000000E+00 -1.323489E-12
       275   6 -2.255536E+05 -2.518041E+05 -9.547153E+04  1.857350E+05  1.695720E-12 -3.308722E-12
       275   7 -2.627201E+05 -2.304020E+05 -9.862442E+04  1.865121E+05  6.617445E-13  5.293956E-12
       275   8 -2.457079E+05 -2.386528E+05 -9.687215E+04  1.831204E+05 -3.308722E-13 -2.646978E-12
       275   9 -2.286205E+05 -2.474154E+05 -9.520717E+04  1.794902E+05  1.158053E-12  2.977850E-12
       275  10 -2.358817E+05 -2.445417E+05 -9.608469E+04  2.042463E+05  0.000000E+00  3.308722E-13
       275  11 -2.285879E+05 -2.510141E+05 -9.592040E+04  1.978882E+05 -3.308722E-13 -3.308722E-13
       275  12 -2.210232E+05 -2.560992E+05 -9.542448E+04  1.916094E+05  1.550964E-13 -4.963084E-13
       275  13 -2.496227E+05 -2.366418E+05 -9.725289E+04  1.947833E+05  3.308722E-13  0.000000E+00
       275  14 -2.376248E+05 -2.442688E+05 -9.637872E+04  1.902348E+05  0.000000E+00  0.000000E+00
       275  15 -2.255536E+05 -2.518041E+05 -9.547153E+04  1.857350E+05 -2.481542E-13 -1.158053E-12
       275  16 -2.627201E+05 -2.304020E+05 -9.862442E+04  1.865121E+05 -8.271806E-14  3.308722E-13
       275  17 -2.457079E+05 -2.386528E+05 -9.687215E+04  1.831204E+05 -1.654361E-13  1.654361E-13
       275  18 -2.286205E+05 -2.474154E+05 -9.520717E+04  1.794902E+05  7.237830E-14 -1.654361E-13
       275  19 -2.358817E+05 -2.445417E+05 -9.608469E+04  2.042463E+05 -1.075335E-12  1.488925E-12
       275  20 -2.285879E+05 -2.510141E+05 -9.592040E+04  1.978882E+05 -1.571643E-12  2.646978E-12
       275  21 -2.210232E+05 -2.560992E+05 -9.542448E+04  1.916094E+05  1.199412E-12 -4.549493E-13
       275  22 -2.496227E+05 -2.366418E+05 -9.725289E+04  1.947833E+05 -6.617445E-13  1.323489E-12
       275  23 -2.376248E+05 -2.442688E+05 -9.637872E+04  1.902348E+05  0.000000E+00  1.323489E-12
       275  24 -2.255536E+05 -2.518041E+05 -9.547153E+04  1.857350E+05 -1.695720E-12  3.308722E-12
       275  25 -2.627201E+05 -2.304020E+05 -9.862442E+04  1.865121E+05 -6.617445E-13 -5.293956E-12
       275  26 -2.457079E+05 -2.386528E+05 -9.687215E+04  1.831204E+05 -9.926167E-13 -2.646978E-12
       275  27 -2.286205E+05 -2.474154E+05 -9.520717E+04  1.794902E+05  1.654361E-13 -5.624828E-12
       276   1 -4.868336E+05 -3.946152E+05 -1.762898E+05  3.192023E+05 -9.926167E-12  9.760731E-12
       276   2 -4.341795E+05 -4.156801E+05 -1.699719E+05  3.054288E+05 -3.970467E-12  5.459392E-12
       276   3 -3.704579E+05 -4.325128E+05 -1.605941E+05  2.872667E+05 -1.046383E-11  8.499281E-12
       276   4 -4.525336E+05 -3.677686E+05 -1.640604E+05  2.820756E+05 -6.617445E-12  1.323489E-12
       276   5 -4.193780E+05 -3.834203E+05 -1.605597E+05  2.721194E+05 -2.646978E-12 -6.617445E-13
       276   6 -3.843576E+05 -3.941264E+05 -1.556968E+05  2.611570E+05 -8.602678E-12  6.617445E-12
       276   7 -4.331301E+05 -3.492635E+05 -1.564787E+05  2.511179E+05 -5.293956E-12  2.646978E-12
       276   8 -4.262164E+05 -3.631651E+05 -1.578763E+05  2.481114E+05  2.646978E-12  6.617445E-12
       276   9 -4.272267E+05 -3.704750E+05 -1.595403E+05  2.476561E+05 -1.025704E-11  3.970467E-12
       276  10 -4.868336E+05 -3.946152E+05 -1.762898E+05  3.192023E+05 -3.308722E-13  3.308722E-13
       276  11 -4.341795E+05 -4.156801E+05 -1.699719E+05  3.054288E+05  9.926167E-13 -1.654361E-13
       276  12 -3.704579E+05 -4.325128E+05 -1.605941E+05  2.872667E+05  1.654361E-13  1.654361E-13
       276  13 -4.525336E+05 -3.677686E+05 -1.640604E+05  2.820756E+05 -6.617445E-13 -6.617445E-13
       276  14 -4.193780E+05 -3.834203E+05 -1.605597E+05  2.721194E+05 -1.323489E-12  6.617445E-13
       276  15 -3.843576E+05 -3.941264E+05 -1.556968E+05  2.611570E+05 -1.406207E-12 -2.481542E-13
       276  16 -4.331301E+05 -3.492635E+05 -1.564787E+05  2.511179E+05  0.000000E+00  3.308722E-13
       276  17 -4.262164E+05 -3.631651E+05 -1.578763E+05  2.481114E+05  3.308722E-13 -6.617445E-13
       276  18 -4.272267E+05 -3.704750E+05 -1.595403E+05  2.476561E+05  4.135903E-14 -1.240771E-13
       276  19 -4.868336E+05 -3.946152E+05 -1.762898E+05  3.192023E+05  1.257315E-11 -9.760731E-12
       276  20 -4.341795E+05 -4.156801E+05 -1.699719E+05  3.054288E+05  1.191140E-11 -5.459392E-12
       276  21 -3.704579E+05 -4.325128E+05 -1.605941E+05  2.872667E+05  1.575779E-11 -8.499281E-12
       276  22 -4.525336E+05 -3.677686E+05 -1.640604E+05  2.820756E+05  6.617445E-12 -6.617445E-12
       276  23 -4.193780E+05 -3.834203E+05 -1.605597E+05  2.721194E+05 -2.646978E-12  6.617445E-13
       276  24 -3.843576E+05 -3.941264E+05 -1.556968E+05  2.611570E+05  5.955700E-12 -6.617445E-12
       276  25 -4.331301E+05 -3.492635E+05 -1.564787E+05  2.511179E+05  2.646978E-12 -7.940934E-12
       276  26 -4.262164E+05 -3.631651E+05 -1.578763E+05  2.481114E+05  2.646978E-12 -3.970467E-12
       276  27 -4.272267E+05 -3.704750E+05 -1.595403E+05  2.476561E+05  7.610062E-12 -3.970467E-12
       277   1 -3.271477E+05 -4.313371E+05 -1.516970E+05  2.693641E+05 -6.286573E-12  4.135903E-12
       277   2 -2.854815E+05 -4.152943E+05 -1.401551E+05  2.383943E+05 -2.150670E-12  7.196471E-12
       277   3 -2.562601E+05 -3.894936E+05 -1.291507E+05  2.067449E+05 -1.062927E-11  1.075335E-11
       277   4 -3.734860E+05 -3.941766E+05 -1.535325E+05  2.539431E+05 -5.293956E-12  5.955700E-12
       277   5 -3.488366E+05 -3.757488E+05 -1.449171E+05  2.335028E+05 -1.985233E-12 -1.323489E-12
       277   6 -3.309205E+05 -3.521293E+05 -1.366100E+05  2.101757E+05 -5.459392E-12  8.271806E-12
       277   7 -4.030643E+05 -3.530531E+05 -1.512235E+05  2.365404E+05 -5.293956E-12  6.617445E-12
       277   8 -3.889671E+05 -3.260877E+05 -1.430110E+05  2.209542E+05 -7.940934E-12  5.955700E-12
       277   9 -3.784764E+05 -2.992665E+05 -1.355486E+05  2.021718E+05 -9.595295E-12  6.286573E-12
       277  10 -3.271477E+05 -4.313371E+05 -1.516970E+05  2.693641E+05 -6.617445E-13  1.654361E-13
       277  11 -2.854815E+05 -4.152943E+05 -1.401551E+05  2.383943E+05  8.271806E-13  8.271806E-14
       277  12 -2.562601E+05 -3.894936E+05 -1.291507E+05  2.067449E+05  5.790264E-13 -5.997059E-13
       277  13 -3.734860E+05 -3.941766E+05 -1.535325E+05  2.539431E+05 -6.617445E-13 -6.617445E-13
       277  14 -3.488366E+05 -3.757488E+05 -1.449171E+05  2.335028E+05 -1.323489E-12  1.323489E-12
       277  15 -3.309205E+05 -3.521293E+05 -1.366100E+05  2.101757E+05  9.926167E-13  0.000000E+00
       277  16 -4.030643E+05 -3.530531E+05 -1.512235E+05  2.365404E+05  3.308722E-13  0.000000E+00
       277  17 -3.889671E+05 -3.260877E+05 -1.430110E+05  2.209542E+05 -1.654361E-13  8.271806E-14
       277  18 -3.784764E+05 -2.992665E+05 -1.355486E+05  2.021718E+05  2.067952E-13  1.447566E-13
       277  19 -3.271477E+05 -4.313371E+05 -1.516970E+05  2.693641E+05  3.639595E-12 -8.106370E-12
       277  20 -2.854815E+05 -4.152943E+05 -1.401551E+05  2.383943E+05  7.444626E-12 -3.226004E-12
       277  21 -2.562601E+05 -3.894936E+05 -1.291507E+05  2.067449E+05  7.982293E-12 -1.075335E-11
       277  22 -3.734860E+05 -3.941766E+05 -1.535325E+05  2.539431E+05  1.323489E-11 -4.632211E-12
       277  23 -3.488366E+05 -3.757488E+05 -1.449171E+05  2.335028E+05 -6.617445E-13  0.000000E+00
       277  24 -3.309205E+05 -3.521293E+05 -1.366100E+05  2.101757E+05  8.106370E-12 -5.624828E-12
       277  25 -4.030643E+05 -3.530531E+05 -1.512235E+05  2.365404E+05  5.293956E-12 -5.293956E-12
       277  26 -3.889671E+05 -3.260877E+05 -1.430110E+05  2.209542E+05  7.940934E-12 -5.955700E-12
       277  27 -3.784764E+05 -2.992665E+05 -1.355486E+05  2.021718E+05  9.595295E-12 -4.963084E-12
       278   1 -4.464305E+05 -3.351372E+05 -1.563135E+05  2.420201E+05 -4.963084E-12  7.610062E-12
       278   2 -4.395397E+05 -3.463210E+05 -1.571722E+05  2.406888E+05 -1.819797E-12  4.714929E-12
       278   3 -4.144989E+05 -3.581886E+05 -1.545375E+05  2.401614E+05 -6.410650E-12  3.515518E-12
       278   4 -4.543578E+05 -3.169221E+05 -1.542560E+05  2.290777E+05 -1.323489E-12  5.293956E-12
       278   5 -4.376140E+05 -3.212359E+05 -1.517700E+05  2.240956E+05 -2.646978E-12  6.617445E-13
       278   6 -4.071016E+05 -3.243022E+05 -1.462808E+05  2.206491E+05 -8.933551E-12  1.488925E-12
       278   7 -4.617667E+05 -2.998937E+05 -1.523321E+05  2.153675E+05  0.000000E+00  5.293956E-12
       278   8 -4.369349E+05 -3.011487E+05 -1.476167E+05  2.074907E+05 -2.646978E-12  3.308722E-12
       278   9 -4.009636E+05 -3.001415E+05 -1.402210E+05  2.016028E+05 -6.286573E-12  5.790264E-12
       278  10 -4.464305E+05 -3.351372E+05 -1.563135E+05  2.420201E+05  0.000000E+00  3.308722E-13
       278  11 -4.395397E+05 -3.463210E+05 -1.571722E+05  2.406888E+05 -9.926167E-13  0.000000E+00
       278  12 -4.144989E+05 -3.581886E+05 -1.545375E+05  2.401614E+05 -5.376674E-13  0.000000E+00
       278  13 -4.543578E+05 -3.169221E+05 -1.542560E+05  2.290777E+05  0.000000E+00  6.617445E-13
       278  14 -4.376140E+05 -3.212359E+05 -1.517700E+05  2.240956E+05  0.000000E+00  0.000000E+00
       278  15 -4.071016E+05 -3.243022E+05 -1.462808E+05  2.206491E+05  4.963084E-13  8.271806E-14
       278  16 -4.617667E+05 -2.998937E+05 -1.523321E+05  2.153675E+05  9.926167E-13  0.000000E+00
       278  17 -4.369349E+05 -3.011487E+05 -1.476167E+05  2.074907E+05 -1.654361E-13  9.926167E-13
       278  18 -4.009636E+05 -3.001415E+05 -1.402210E+05  2.016028E+05 -3.722313E-13 -8.271806E-14
       278  19 -4.464305E+05 -3.351372E+05 -1.563135E+05  2.420201E+05  4.963084E-12 -4.963084E-12
       278  20 -4.395397E+05 -3.463210E+05 -1.571722E+05  2.406888E+05  1.819797E-12 -4.714929E-12
       278  21 -4.144989E+05 -3.581886E+05 -1.545375E+05  2.401614E+05  6.410650E-12 -6.162496E-12
       278  22 -4.543578E+05 -3.169221E+05 -1.542560E+05  2.290777E+05  3.970467E-12 -2.646978E-12
       278  23 -4.376140E+05 -3.212359E+05 -1.517700E+05  2.240956E+05  2.646978E-12 -6.617445E-13
       278  24 -4.071016E+05 -3.243022E+05 -1.462808E+05  2.206491E+05  6.286573E-12 -4.135903E-12
       278  25 -4.617667E+05 -2.998937E+05 -1.523321E+05  2.153675E+05  2.646978E-12 -2.646978E-12
       278  26 -4.369349E+05 -3.011487E+05 -1.476167E+05  2.074907E+05  7.940934E-12 -3.308722E-12
       278  27 -4.009636E+05 -3.001415E+05 -1.402210E+05  2.016028E+05  8.933551E-12 -4.466775E-12
       279   1 -1.658439E+05 -1.114280E+05 -5.545437E+04 -6.493691E+02  2.183757E-11  2.382280E-11
       279   2 -1.617807E+05 -1.102758E+05 -5.441132E+04 -1.421202E+03 -2.382280E-11 -1.588187E-11
       279   3 -1.567171E+05 -1.091250E+05 -5.316843E+04 -1.854217E+03  1.406207E-12 -5.161607E-11
       279   4 -1.576371E+05 -1.095670E+05 -5.344082E+04 -5.693243E+02  5.293956E-12 -2.117582E-11
       279   5 -1.548382E+05 -1.086825E+05 -5.270414E+04 -1.390426E+03  1.323489E-11 -3.176374E-11
       279   6 -1.516196E+05 -1.076389E+05 -5.185170E+04 -2.072441E+03  2.580804E-11  0.000000E+00
       279   7 -1.490014E+05 -1.072796E+05 -5.125620E+04 -1.060425E+03 -1.058791E-11  0.000000E+00
       279   8 -1.477689E+05 -1.071554E+05 -5.098486E+04 -1.501007E+03 -1.588187E-11 -5.293956E-11
       279   9 -1.472914E+05 -1.070189E+05 -5.086205E+04 -1.769694E+03 -1.852885E-11 -2.911676E-11
       279  10 -1.658439E+05 -1.114280E+05 -5.545437E+04 -6.493691E+02  1.323489E-12  0.000000E+00
       279  11 -1.617807E+05 -1.102758E+05 -5.441132E+04 -1.421202E+03 -6.617445E-13 -5.293956E-12
       279  12 -1.567171E+05 -1.091250E+05 -5.316843E+04 -1.854217E+03 -4.963084E-13 -5.955700E-12
       279  13 -1.576371E+05 -1.095670E+05 -5.344082E+04 -5.693243E+02  0.000000E+00 -5.293956E-12
       279  14 -1.548382E+05 -1.086825E+05 -5.270414E+04 -1.390426E+03  2.646978E-12  1.588187E-11
       279  15 -1.516196E+05 -1.076389E+05 -5.185170E+04 -2.072441E+03 -6.617445E-13  6.617445E-12
       279  16 -1.490014E+05 -1.072796E+05 -5.125620E+04 -1.060425E+03  0.000000E+00  2.646978E-12
       279  17 -1.477689E+05 -1.071554E+05 -5.098486E+04 -1.501007E+03 -2.646978E-12 -7.940934E-12
       279  18 -1.472914E+05 -1.070189E+05 -5.086205E+04 -1.769694E+03 -8.271806E-13  5.955700E-12
       279  19 -1.658439E+05 -1.114280E+05 -5.545437E+04 -6.493691E+02 -6.617445E-13 -2.646978E-12
       279  20 -1.617807E+05 -1.102758E+05 -5.441132E+04 -1.421202E+03 -7.940934E-12  3.705769E-11
       279  21 -1.567171E+05 -1.091250E+05 -5.316843E+04 -1.854217E+03 -1.406207E-12  3.044025E-11
       279  22 -1.576371E+05 -1.095670E+05 -5.344082E+04 -5.693243E+02  5.293956E-12  0.000000E+00
       279  23 -1.548382E+05 -1.086825E+05 -5.270414E+04 -1.390426E+03  7.940934E-12  3.176374E-11
       279  24 -1.516196E+05 -1.076389E+05 -5.185170E+04 -2.072441E+03 -1.522012E-11  4.235165E-11
       279  25 -1.490014E+05 -1.072796E+05 -5.125620E+04 -1.060425E+03  0.000000E+00 -2.117582E-11
       279  26 -1.477689E+05 -1.071554E+05 -5.098486E+04 -1.501007E+03  5.293956E-12  1.058791E-11
       279  27 -1.472914E+05 -1.070189E+05 -5.086205E+04 -1.769694E+03 -2.646978E-12 -1.323489E-11
       280   1 -1.530947E+05 -1.082977E+05 -5.227848E+04 -2.132315E+03  9.264423E-12  7.940934E-12
       280   2 -1.481415E+05 -1.070023E+05 -5.102875E+04 -2.194400E+03 -2.646978E-12 -2.249931E-11
       280   3 -1.430571E+05 -1.056197E+05 -4.973536E+04 -2.133887E+03 -2.067952E-12  2.481542E-11
       280   4 -1.495584E+05 -1.074825E+05 -5.140818E+04 -2.029482E+03  1.058791E-11  2.117582E-11
       280   5 -1.450647E+05 -1.064895E+05 -5.031084E+04 -2.057951E+03 -7.940934E-12  4.764560E-11
       280   6 -1.404821E+05 -1.053740E+05 -4.917122E+04 -2.007595E+03 -6.617445E-13 -1.323489E-11
       280   7 -1.457612E+05 -1.064540E+05 -5.044304E+04 -2.075285E+03  0.000000E+00  0.000000E+00
       280   8 -1.418416E+05 -1.058584E+05 -4.954000E+04 -1.999689E+03  2.646978E-11 -1.058791E-11
       280   9 -1.378847E+05 -1.050857E+05 -4.859407E+04 -1.909816E+03  1.522012E-11  2.117582E-11
       280  10 -1.530947E+05 -1.082977E+05 -5.227848E+04 -2.132315E+03 -1.323489E-12  0.000000E+00
       280  11 -1.481415E+05 -1.070023E+05 -5.102875E+04 -2.194400E+03 -1.985233E-12 -3.970467E-12
       280  12 -1.430571E+05 -1.056197E+05 -4.973536E+04 -2.133887E+03  1.323489E-12 -3.308722E-13
       280  13 -1.495584E+05 -1.074825E+05 -5.140818E+04 -2.029482E+03 -2.646978E-12 -5.293956E-12
       280  14 -1.450647E+05 -1.064895E+05 -5.031084E+04 -2.057951E+03 -2.646978E-12  1.058791E-11
       280  15 -1.404821E+05 -1.053740E+05 -4.917122E+04 -2.007595E+03 -6.617445E-13  7.940934E-12
       280  16 -1.457612E+05 -1.064540E+05 -5.044304E+04 -2.075285E+03  1.323489E-12  5.293956E-12
       280  17 -1.418416E+05 -1.058584E+05 -4.954000E+04 -1.999689E+03 -1.985233E-12  1.058791E-11
       280  18 -1.378847E+05 -1.050857E+05 -4.859407E+04 -1.909816E+03 -8.271806E-13  0.000000E+00
       280  19 -1.530947E+05 -1.082977E+05 -5.227848E+04 -2.132315E+03 -9.264423E-12 -7.940934E-12
       280  20 -1.481415E+05 -1.070023E+05 -5.102875E+04 -2.194400E+03 -7.940934E-12  2.249931E-11
       280  21 -1.430571E+05 -1.056197E+05 -4.973536E+04 -2.133887E+03  2.067952E-12 -3.639595E-12
       280  22 -1.495584E+05 -1.074825E+05 -5.140818E+04 -2.029482E+03  0.000000E+00  0.000000E+00
       280  23 -1.450647E+05 -1.064895E+05 -5.031084E+04 -2.057951E+03  7.940934E-12 -4.764560E-11
       280  24 -1.404821E+05 -1.053740E+05 -4.917122E+04 -2.007595E+03 -9.926167E-12  1.323489E-11
       280  25 -1.457612E+05 -1.064540E+05 -5.044304E+04 -2.075285E+03  0.000000E+00  0.000000E+00
       280  26 -1.418416E+05 -1.058584E+05 -4.954000E+04 -1.999689E+03 -2.646978E-11  5.293956E-11
       280  27 -1.378847E+05 -1.050857E+05 -4.859407E+04 -1.909816E+03 -1.522012E-11  0.000000E+00
       281   1 -1.444690E+05 -1.062868E+05 -5.015115E+04 -1.301136E+03 -2.316106E-11 -3.176374E-11
       281   2 -1.448581E+05 -1.065790E+05 -5.028742E+04 -1.423407E+03  9.264423E-12 -1.058791E-11
       281   3 -1.446163E+05 -1.067448E+05 -5.027223E+04 -1.637786E+03  1.009160E-11  1.158053E-11
       281   4 -1.384104E+05 -1.055733E+05 -4.879673E+04 -1.194636E+03 -5.293956E-12 -3.176374E-11
       281   5 -1.395666E+05 -1.057306E+05 -4.905945E+04 -1.454770E+03 -2.646978E-12  6.882143E-11
       281   6 -1.405757E+05 -1.058278E+05 -4.928071E+04 -1.797922E+03 -1.654361E-11 -2.646978E-11
       281   7 -1.324325E+05 -1.048170E+05 -4.744989E+04 -1.304374E+03 -5.293956E-12 -2.117582E-11
       281   8 -1.343218E+05 -1.048994E+05 -4.784424E+04 -1.564713E+03  0.000000E+00  2.117582E-11
       281   9 -1.364593E+05 -1.050064E+05 -4.829313E+04 -1.835819E+03  1.124966E-11  2.646978E-11
       281  10 -1.444690E+05 -1.062868E+05 -5.015115E+04 -1.301136E+03  1.323489E-12  0.000000E+00
       281  11 -1.448581E+05 -1.065790E+05 -5.028742E+04 -1.423407E+03 -2.646978E-12 -1.323489E-12
       281  12 -1.446163E+05 -1.067448E+05 -5.027223E+04 -1.637786E+03 -1.323489E-12 -5.955700E-12
       281  13 -1.384104E+05 -1.055733E+05 -4.879673E+04 -1.194636E+03  2.646978E-12 -5.293956E-12
       281  14 -1.395666E+05 -1.057306E+05 -4.905945E+04 -1.454770E+03  2.646978E-12 -5.293956E-12
       281  15 -1.405757E+05 -1.058278E+05 -4.928071E+04 -1.797922E+03 -1.985233E-12 -9.926167E-12
       281  16 -1.324325E+05 -1.048170E+05 -4.744989E+04 -1.304374E+03  1.323489E-12  2.646978E-12
       281  17 -1.343218E+05 -1.048994E+05 -4.784424E+04 -1.564713E+03 -1.323489E-12  1.191140E-11
       281  18 -1.364593E+05 -1.050064E+05 -4.829313E+04 -1.835819E+03  2.812414E-12  6.617445E-13
       281  19 -1.444690E+05 -1.062868E+05 -5.015115E+04 -1.301136E+03  1.257315E-11  1.058791E-11
       281  20 -1.448581E+05 -1.065790E+05 -5.028742E+04 -1.423407E+03 -9.264423E-12  1.058791E-11
       281  21 -1.446163E+05 -1.067448E+05 -5.027223E+04 -1.637786E+03  4.963084E-13 -3.275635E-11
       281  22 -1.384104E+05 -1.055733E+05 -4.879673E+04 -1.194636E+03 -1.588187E-11  5.293956E-11
       281  23 -1.395666E+05 -1.057306E+05 -4.905945E+04 -1.454770E+03  2.646978E-12 -2.646978E-11
       281  24 -1.405757E+05 -1.058278E+05 -4.928071E+04 -1.797922E+03  5.955700E-12  2.646978E-11
       281  25 -1.324325E+05 -1.048170E+05 -4.744989E+04 -1.304374E+03  5.293956E-12  4.235165E-11
       281  26 -1.343218E+05 -1.048994E+05 -4.784424E+04 -1.564713E+03  0.000000E+00  0.000000E+00
       281  27 -1.364593E+05 -1.050064E+05 -4.829313E+04 -1.835819E+03 -1.124966E-11  1.588187E-11
       282   1 -1.294434E+05 -3.318545E+04 -3.252578E+04 -3.209001E+04 -1.680211E-14  2.714186E-14
       282   2 -1.361446E+05 -3.479997E+04 -3.418892E+04 -2.791292E+04 -1.292470E-14  2.358757E-14
       282   3 -1.419979E+05 -3.620113E+04 -3.563981E+04 -2.396103E+04 -1.211690E-14  2.277978E-14
       282   4 -1.288509E+05 -3.606119E+04 -3.298242E+04 -3.185001E+04 -6.462349E-14  1.163223E-13
       282   5 -1.349941E+05 -3.726239E+04 -3.445129E+04 -2.809744E+04  0.000000E+00 -1.292470E-15
       282   6 -1.398158E+05 -3.812024E+04 -3.558721E+04 -2.474788E+04 -4.588267E-14  9.208847E-14
       282   7 -1.282153E+05 -3.938590E+04 -3.352023E+04 -3.159313E+04 -1.344168E-13  2.429843E-13
       282   8 -1.339394E+05 -4.005722E+04 -3.479933E+04 -2.821736E+04 -1.111524E-13  1.938705E-13
       282   9 -1.376266E+05 -4.017174E+04 -3.555967E+04 -2.551379E+04 -8.271806E-14  1.893468E-13
       282  10 -1.294434E+05 -3.318545E+04 -3.252578E+04 -3.209001E+04  0.000000E+00  0.000000E+00
       282  11 -1.361446E+05 -3.479997E+04 -3.418892E+04 -2.791292E+04  3.231174E-16  4.846761E-16
       282  12 -1.419979E+05 -3.620113E+04 -3.563981E+04 -2.396103E+04  2.423381E-16  1.211690E-16
       282  13 -1.288509E+05 -3.606119E+04 -3.298242E+04 -3.185001E+04  0.000000E+00  6.462349E-16
       282  14 -1.349941E+05 -3.726239E+04 -3.445129E+04 -2.809744E+04 -6.462349E-16  3.231174E-16
       282  15 -1.398158E+05 -3.812024E+04 -3.558721E+04 -2.474788E+04 -9.693523E-16  2.423381E-16
       282  16 -1.282153E+05 -3.938590E+04 -3.352023E+04 -3.159313E+04  6.462349E-16  0.000000E+00
       282  17 -1.339394E+05 -4.005722E+04 -3.479933E+04 -2.821736E+04 -6.462349E-16 -3.231174E-16
       282  18 -1.376266E+05 -4.017174E+04 -3.555967E+04 -2.551379E+04  0.000000E+00  2.827277E-16
       282  19 -1.294434E+05 -3.318545E+04 -3.252578E+04 -3.209001E+04  1.680211E-14 -2.714186E-14
       282  20 -1.361446E+05 -3.479997E+04 -3.418892E+04 -2.791292E+04  1.292470E-14 -2.294134E-14
       282  21 -1.419979E+05 -3.620113E+04 -3.563981E+04 -2.396103E+04  1.211690E-14 -2.342601E-14
       282  22 -1.288509E+05 -3.606119E+04 -3.298242E+04 -3.185001E+04  6.979336E-14 -1.111524E-13
       282  23 -1.349941E+05 -3.726239E+04 -3.445129E+04 -2.809744E+04  5.169879E-15 -1.292470E-15
       282  24 -1.398158E+05 -3.812024E+04 -3.558721E+04 -2.474788E+04  4.588267E-14 -8.950353E-14
       282  25 -1.282153E+05 -3.938590E+04 -3.352023E+04 -3.159313E+04  1.550964E-13 -2.481542E-13
       282  26 -1.339394E+05 -4.005722E+04 -3.479933E+04 -2.821736E+04  1.111524E-13 -1.938705E-13
       282  27 -1.376266E+05 -4.017174E+04 -3.555967E+04 -2.551379E+04  8.788794E-14 -1.945167E-13
       283   1 -1.459824E+05 -3.743276E+04 -3.668304E+04 -2.133350E+04 -1.938705E-14  3.069616E-14
       283   2 -1.511600E+05 -3.865242E+04 -3.796249E+04 -1.798771E+04 -1.098599E-14  2.552628E-14
       283   3 -1.547273E+05 -3.953799E+04 -3.885306E+04 -1.552693E+04 -1.785224E-14  2.867667E-14
       283   4 -1.427494E+05 -3.959931E+04 -3.646974E+04 -2.266280E+04 -6.720842E-14  1.137373E-13
       283   5 -1.450197E+05 -4.045026E+04 -3.709400E+04 -2.084932E+04 -1.033976E-14 -5.169879E-15
       283   6 -1.471013E+05 -4.129571E+04 -3.767940E+04 -1.911118E+04 -6.333102E-14  1.363556E-13
       283   7 -1.388426E+05 -4.102550E+04 -3.597363E+04 -2.442619E+04 -9.822770E-14  2.042102E-13
       283   8 -1.398390E+05 -4.324609E+04 -3.661703E+04 -2.305454E+04 -1.292470E-13  2.442768E-13
       283   9 -1.415123E+05 -4.494988E+04 -3.729243E+04 -2.134892E+04 -1.751296E-13  3.253792E-13
       283  10 -1.459824E+05 -3.743276E+04 -3.668304E+04 -2.133350E+04  0.000000E+00  0.000000E+00
       283  11 -1.511600E+05 -3.865242E+04 -3.796249E+04 -1.798771E+04  6.462349E-16  0.000000E+00
       283  12 -1.547273E+05 -3.953799E+04 -3.885306E+04 -1.552693E+04  7.270142E-16 -5.250658E-16
       283  13 -1.427494E+05 -3.959931E+04 -3.646974E+04 -2.266280E+04 -1.292470E-15  0.000000E+00
       283  14 -1.450197E+05 -4.045026E+04 -3.709400E+04 -2.084932E+04  2.584939E-15 -1.292470E-15
       283  15 -1.471013E+05 -4.129571E+04 -3.767940E+04 -1.911118E+04  0.000000E+00  1.615587E-16
       283  16 -1.388426E+05 -4.102550E+04 -3.597363E+04 -2.442619E+04  1.292470E-15  0.000000E+00
       283  17 -1.398390E+05 -4.324609E+04 -3.661703E+04 -2.305454E+04 -1.938705E-15 -2.584939E-15
       283  18 -1.415123E+05 -4.494988E+04 -3.729243E+04 -2.134892E+04 -1.130911E-15  1.211690E-15
       283  19 -1.459824E+05 -3.743276E+04 -3.668304E+04 -2.133350E+04  1.938705E-14 -3.004992E-14
       283  20 -1.511600E+05 -3.865242E+04 -3.796249E+04 -1.798771E+04  1.357093E-14 -2.488004E-14
       283  21 -1.547273E+05 -3.953799E+04 -3.885306E+04 -1.552693E+04  1.785224E-14 -2.673797E-14
       283  22 -1.427494E+05 -3.959931E+04 -3.646974E+04 -2.266280E+04  6.720842E-14 -1.163223E-13
       283  23 -1.450197E+05 -4.045026E+04 -3.709400E+04 -2.084932E+04  5.169879E-15 -5.169879E-15
       283  24 -1.471013E+05 -4.129571E+04 -3.767940E+04 -1.911118E+04  7.367077E-14 -1.337706E-13
       283  25 -1.388426E+05 -4.102550E+04 -3.597363E+04 -2.442619E+04  1.085675E-13 -2.093801E-13
       283  26 -1.398390E+05 -4.324609E+04 -3.661703E+04 -2.305454E+04  1.395867E-13 -2.442768E-13
       283  27 -1.415123E+05 -4.494988E+04 -3.729243E+04 -2.134892E+04  1.647899E-13 -3.202094E-13
       284   1 -1.269751E+05 -4.168473E+04 -3.373197E+04 -3.173215E+04 -1.835307E-13  3.205325E-13
       284   2 -1.319418E+05 -4.157579E+04 -3.470351E+04 -2.851796E+04 -1.447566E-13  2.688337E-13
       284   3 -1.369662E+05 -4.140513E+04 -3.567427E+04 -2.589289E+04 -1.324781E-13  2.431459E-13
       284   4 -1.266577E+05 -4.627637E+04 -3.458682E+04 -3.059032E+04 -2.378144E-13  4.342698E-13
       284   5 -1.319368E+05 -4.507127E+04 -3.540161E+04 -2.726963E+04  3.101927E-14  2.584939E-15
       284   6 -1.376171E+05 -4.390802E+04 -3.630502E+04 -2.417259E+04 -1.512190E-13  2.643101E-13
       284   7 -1.262685E+05 -5.029039E+04 -3.531178E+04 -2.941521E+04 -3.515518E-13  6.203855E-13
       284   8 -1.319013E+05 -4.829632E+04 -3.603953E+04 -2.595933E+04 -2.481542E-13  4.290999E-13
       284   9 -1.381902E+05 -4.647016E+04 -3.693207E+04 -2.245880E+04 -1.654361E-13  3.890334E-13
       284  10 -1.269751E+05 -4.168473E+04 -3.373197E+04 -3.173215E+04  1.292470E-15  0.000000E+00
       284  11 -1.319418E+05 -4.157579E+04 -3.470351E+04 -2.851796E+04  1.292470E-15 -6.462349E-16
       284  12 -1.369662E+05 -4.140513E+04 -3.567427E+04 -2.589289E+04 -3.231174E-16  4.846761E-16
       284  13 -1.266577E+05 -4.627637E+04 -3.458682E+04 -3.059032E+04 -5.169879E-15  2.584939E-15
       284  14 -1.319368E+05 -4.507127E+04 -3.540161E+04 -2.726963E+04  0.000000E+00  0.000000E+00
       284  15 -1.376171E+05 -4.390802E+04 -3.630502E+04 -2.417259E+04 -6.462349E-16 -3.231174E-16
       284  16 -1.262685E+05 -5.029039E+04 -3.531178E+04 -2.941521E+04  2.584939E-15  3.877409E-15
       284  17 -1.319013E+05 -4.829632E+04 -3.603953E+04 -2.595933E+04 -1.292470E-15  5.169879E-15
       284  18 -1.381902E+05 -4.647016E+04 -3.693207E+04 -2.245880E+04 -2.261822E-15  1.292470E-15
       284  19 -1.269751E+05 -4.168473E+04 -3.373197E+04 -3.173215E+04  1.938705E-13 -3.360421E-13
       284  20 -1.319418E+05 -4.157579E+04 -3.470351E+04 -2.851796E+04  1.344168E-13 -2.481542E-13
       284  21 -1.369662E+05 -4.140513E+04 -3.567427E+04 -2.589289E+04  1.117986E-13 -2.379760E-13
       284  22 -1.266577E+05 -4.627637E+04 -3.458682E+04 -3.059032E+04  2.584939E-13 -4.342698E-13
       284  23 -1.319368E+05 -4.507127E+04 -3.540161E+04 -2.726963E+04 -1.033976E-14 -2.584939E-15
       284  24 -1.376171E+05 -4.390802E+04 -3.630502E+04 -2.417259E+04  1.512190E-13 -2.746498E-13
       284  25 -1.262685E+05 -5.029039E+04 -3.531178E+04 -2.941521E+04  3.308722E-13 -6.100457E-13
       284  26 -1.319013E+05 -4.829632E+04 -3.603953E+04 -2.595933E+04  2.481542E-13 -4.394397E-13
       284  27 -1.381902E+05 -4.647016E+04 -3.693207E+04 -2.245880E+04  1.861156E-13 -3.890334E-13
       285   1 -1.217721E+05 -5.117659E+04 -3.458973E+04 -3.131080E+04 -4.310386E-13  6.992261E-13
       285   2 -1.117482E+05 -5.249361E+04 -3.284837E+04 -3.637713E+04 -4.917847E-13  7.056885E-13
       285   3 -9.976905E+04 -5.364288E+04 -3.068239E+04 -4.264312E+04 -7.096466E-13  9.489959E-13
       285   4 -1.231229E+05 -4.573826E+04 -3.377223E+04 -3.235251E+04 -2.843433E-13  4.497795E-13
       285   5 -1.155034E+05 -4.604006E+04 -3.230870E+04 -3.611725E+04 -2.584939E-15  1.550964E-14
       285   6 -1.054537E+05 -4.600029E+04 -3.029079E+04 -4.122550E+04 -4.536569E-13  5.793495E-13
       285   7 -1.245828E+05 -4.179107E+04 -3.327477E+04 -3.317368E+04 -2.378144E-13  3.515518E-13
       285   8 -1.196348E+05 -4.096890E+04 -3.212075E+04 -3.554176E+04 -2.378144E-13  3.334572E-13
       285   9 -1.116340E+05 -3.954314E+04 -3.023542E+04 -3.943962E+04 -3.366884E-13  4.038968E-13
       285  10 -1.217721E+05 -5.117659E+04 -3.458973E+04 -3.131080E+04  0.000000E+00 -1.292470E-15
       285  11 -1.117482E+05 -5.249361E+04 -3.284837E+04 -3.637713E+04 -3.231174E-15  0.000000E+00
       285  12 -9.976905E+04 -5.364288E+04 -3.068239E+04 -4.264312E+04 -3.231174E-15 -1.130911E-15
       285  13 -1.231229E+05 -4.573826E+04 -3.377223E+04 -3.235251E+04  0.000000E+00  5.169879E-15
       285  14 -1.155034E+05 -4.604006E+04 -3.230870E+04 -3.611725E+04 -5.169879E-15 -3.877409E-15
       285  15 -1.054537E+05 -4.600029E+04 -3.029079E+04 -4.122550E+04  1.938705E-15 -6.462349E-15
       285  16 -1.245828E+05 -4.179107E+04 -3.327477E+04 -3.317368E+04  0.000000E+00 -1.292470E-15
       285  17 -1.196348E+05 -4.096890E+04 -3.212075E+04 -3.554176E+04  1.938705E-15 -6.462349E-16
       285  18 -1.116340E+05 -3.954314E+04 -3.023542E+04 -3.943962E+04  6.462349E-16 -1.130911E-15
       285  19 -1.217721E+05 -5.117659E+04 -3.458973E+04 -3.131080E+04  4.103591E-13 -7.095659E-13
       285  20 -1.117482E+05 -5.249361E+04 -3.284837E+04 -3.637713E+04  5.124642E-13 -7.367077E-13
       285  21 -9.976905E+04 -5.364288E+04 -3.068239E+04 -4.264312E+04  6.993069E-13 -9.903549E-13
       285  22 -1.231229E+05 -4.573826E+04 -3.377223E+04 -3.235251E+04  2.533241E-13 -4.290999E-13
       285  23 -1.155034E+05 -4.604006E+04 -3.230870E+04 -3.611725E+04 -1.809458E-14  5.169879E-15
       285  24 -1.054537E+05 -4.600029E+04 -3.029079E+04 -4.122550E+04  4.536569E-13 -5.793495E-13
       285  25 -1.245828E+05 -4.179107E+04 -3.327477E+04 -3.317368E+04  2.274747E-13 -3.618915E-13
       285  26 -1.196348E+05 -4.096890E+04 -3.212075E+04 -3.554176E+04  2.171349E-13 -3.231174E-13
       285  27 -1.116340E+05 -3.954314E+04 -3.023542E+04 -3.943962E+04  3.366884E-13 -4.038968E-13
       286   1 -9.284936E+04 -4.429286E+04 -2.742844E+04 -4.660709E+04 -6.817778E-13  6.921175E-13
       286   2 -8.249651E+04 -3.148014E+04 -2.279533E+04 -5.086563E+04 -3.053460E-13  3.295798E-13
       286   3 -6.857720E+04 -1.938116E+04 -1.759167E+04 -5.547291E+04 -6.922791E-14  7.439779E-14
       286   4 -1.005505E+05 -4.200650E+04 -2.851139E+04 -4.324574E+04 -4.937234E-13  5.118180E-13
       286   5 -9.047932E+04 -3.186500E+04 -2.446886E+04 -4.702578E+04  5.169879E-15  1.292470E-15
       286   6 -7.955568E+04 -2.192077E+04 -2.029529E+04 -5.088382E+04 -5.719178E-14  6.009984E-14
       286   7 -1.061955E+05 -3.774609E+04 -2.878831E+04 -4.110699E+04 -3.877409E-13  3.825710E-13
       286   8 -9.819577E+04 -3.208244E+04 -2.605564E+04 -4.334385E+04 -2.326445E-13  2.223048E-13
       286   9 -9.390748E+04 -2.540706E+04 -2.386291E+04 -4.534400E+04 -6.720842E-14  6.397725E-14
       286  10 -9.284936E+04 -4.429286E+04 -2.742844E+04 -4.660709E+04  1.292470E-15 -2.584939E-15
       286  11 -8.249651E+04 -3.148014E+04 -2.279533E+04 -5.086563E+04  1.292470E-15  6.462349E-16
       286  12 -6.857720E+04 -1.938116E+04 -1.759167E+04 -5.547291E+04  0.000000E+00  8.077936E-16
       286  13 -1.005505E+05 -4.200650E+04 -2.851139E+04 -4.324574E+04  0.000000E+00  2.584939E-15
       286  14 -9.047932E+04 -3.186500E+04 -2.446886E+04 -4.702578E+04  0.000000E+00  1.292470E-15
       286  15 -7.955568E+04 -2.192077E+04 -2.029529E+04 -5.088382E+04 -3.231174E-16 -9.693523E-16
       286  16 -1.061955E+05 -3.774609E+04 -2.878831E+04 -4.110699E+04  0.000000E+00  0.000000E+00
       286  17 -9.819577E+04 -3.208244E+04 -2.605564E+04 -4.334385E+04 -6.462349E-16 -6.462349E-16
       286  18 -9.390748E+04 -2.540706E+04 -2.386291E+04 -4.534400E+04 -1.615587E-16 -4.846761E-16
       286  19 -9.284936E+04 -4.429286E+04 -2.742844E+04 -4.660709E+04  6.817778E-13 -6.921175E-13
       286  20 -8.249651E+04 -3.148014E+04 -2.279533E+04 -5.086563E+04  3.053460E-13 -3.192400E-13
       286  21 -6.857720E+04 -1.938116E+04 -1.759167E+04 -5.547291E+04  6.922791E-14 -7.569026E-14
       286  22 -1.005505E+05 -4.200650E+04 -2.851139E+04 -4.324574E+04  4.937234E-13 -4.911385E-13
       286  23 -9.047932E+04 -3.186500E+04 -2.446886E+04 -4.702578E+04 -5.169879E-15  3.877409E-15
       286  24 -7.955568E+04 -2.192077E+04 -2.029529E+04 -5.088382E+04  5.977672E-14 -6.139231E-14
       286  25 -1.061955E+05 -3.774609E+04 -2.878831E+04 -4.110699E+04  3.670614E-13 -3.670614E-13
       286  26 -9.819577E+04 -3.208244E+04 -2.605564E+04 -4.334385E+04  2.326445E-13 -2.171349E-13
       286  27 -9.390748E+04 -2.540706E+04 -2.386291E+04 -4.534400E+04  6.785466E-14 -6.397725E-14
       287   1 -1.244621E+05 -3.968005E+04 -3.282842E+04 -3.359176E+04 -2.029177E-13  2.811122E-13
       287   2 -1.186140E+05 -3.816951E+04 -3.135670E+04 -3.684301E+04 -1.990403E-13  2.429843E-13
       287   3 -1.110088E+05 -3.622328E+04 -2.944642E+04 -4.013585E+04 -2.584939E-13  2.791735E-13
       287   4 -1.242485E+05 -3.567658E+04 -3.198502E+04 -3.380513E+04 -1.092137E-13  1.357093E-13
       287   5 -1.165173E+05 -3.372251E+04 -3.004796E+04 -3.733332E+04 -3.877409E-15  1.292470E-15
       287   6 -1.072483E+05 -3.138609E+04 -2.772688E+04 -4.092222E+04 -1.292470E-13  1.370018E-13
       287   7 -1.246152E+05 -3.215658E+04 -3.135436E+04 -3.435636E+04 -2.762654E-14  3.206940E-14
       287   8 -1.151142E+05 -2.977786E+04 -2.897842E+04 -3.817458E+04 -3.101927E-14  2.778810E-14
       287   9 -1.042504E+05 -2.705890E+04 -2.626186E+04 -4.206889E+04 -3.554292E-14  3.166551E-14
       287  10 -1.244621E+05 -3.968005E+04 -3.282842E+04 -3.359176E+04  0.000000E+00  0.000000E+00
       287  11 -1.186140E+05 -3.816951E+04 -3.135670E+04 -3.684301E+04 -9.693523E-16 -6.462349E-16
       287  12 -1.110088E+05 -3.622328E+04 -2.944642E+04 -4.013585E+04  0.000000E+00  6.058452E-16
       287  13 -1.242485E+05 -3.567658E+04 -3.198502E+04 -3.380513E+04  1.292470E-15  0.000000E+00
       287  14 -1.165173E+05 -3.372251E+04 -3.004796E+04 -3.733332E+04  0.000000E+00  1.938705E-15
       287  15 -1.072483E+05 -3.138609E+04 -2.772688E+04 -4.092222E+04 -1.292470E-15  3.231174E-16
       287  16 -1.246152E+05 -3.215658E+04 -3.135436E+04 -3.435636E+04  0.000000E+00  0.000000E+00
       287  17 -1.151142E+05 -2.977786E+04 -2.897842E+04 -3.817458E+04  0.000000E+00  4.846761E-16
       287  18 -1.042504E+05 -2.705890E+04 -2.626186E+04 -4.206889E+04  0.000000E+00 -4.038968E-17
       287  19 -1.244621E+05 -3.968005E+04 -3.282842E+04 -3.359176E+04  1.822382E-13 -2.811122E-13
       287  20 -1.186140E+05 -3.816951E+04 -3.135670E+04 -3.684301E+04  1.990403E-13 -2.584939E-13
       287  21 -1.110088E+05 -3.622328E+04 -2.944642E+04 -4.013585E+04  2.481542E-13 -2.791735E-13
       287  22 -1.242485E+05 -3.567658E+04 -3.198502E+04 -3.380513E+04  1.092137E-13 -1.357093E-13
       287  23 -1.165173E+05 -3.372251E+04 -3.004796E+04 -3.733332E+04 -1.292470E-15 -1.292470E-15
       287  24 -1.072483E+05 -3.138609E+04 -2.772688E+04 -4.092222E+04  1.318319E-13 -1.344168E-13
       287  25 -1.246152E+05 -3.215658E+04 -3.135436E+04 -3.435636E+04  2.891901E-14 -3.206940E-14
       287  26 -1.151142E+05 -2.977786E+04 -2.897842E+04 -3.817458E+04  2.972680E-14 -2.908057E-14
       287  27 -1.042504E+05 -2.705890E+04 -2.626186E+04 -4.206889E+04  3.683539E-14 -3.166551E-14
