    1C
    1UUSER                                                              
    1UDATE              26.july.2016                                    
    1UTIME              13:13:25                                        
    1UHOST                                                              
    1UPGM               CalculiX                                        
    1UDIR                                                               
    1UDBN                                                               
    2C                           960                                     1
 -1         1 0.00000E+00 0.00000E+00 0.00000E+00
 -1         2 2.43840E+00 0.00000E+00 0.00000E+00
 -1         3 6.70560E+00 3.65760E+00 0.00000E+00
 -1         4 3.32232E+01 4.12047E+00 0.00000E+00
 -1         5 3.50520E+01 4.15239E+00 0.00000E+00
 -1         6 3.50520E+01 8.41959E+00 0.00000E+00
 -1         8 6.70560E+00 2.22504E+01 0.00000E+00
 -1        10 4.26720E+00 2.98704E+01 0.00000E+00
 -1        11 6.09600E-01 3.35280E+01 0.00000E+00
 -1        12 0.00000E+00 3.35280E+01 0.00000E+00
 -1        13 6.09600E-01 0.00000E+00 0.00000E+00
 -1        14 1.21920E+00 0.00000E+00 0.00000E+00
 -1        15 1.82880E+00 0.00000E+00 0.00000E+00
 -1        16 3.04800E-01 0.00000E+00 0.00000E+00
 -1        17 9.14400E-01 0.00000E+00 0.00000E+00
 -1        18 1.52400E+00 0.00000E+00 0.00000E+00
 -1        19 2.13360E+00 0.00000E+00 0.00000E+00
 -1        20 3.50520E+00 9.14400E-01 0.00000E+00
 -1        21 4.57200E+00 1.82880E+00 0.00000E+00
 -1        22 5.63880E+00 2.74320E+00 0.00000E+00
 -1        23 2.97180E+00 4.57200E-01 0.00000E+00
 -1        24 4.03860E+00 1.37160E+00 0.00000E+00
 -1        25 5.10540E+00 2.28600E+00 0.00000E+00
 -1        26 6.17220E+00 3.20040E+00 0.00000E+00
 -1        27 8.36295E+00 3.68653E+00 0.00000E+00
 -1        28 1.00203E+01 3.71546E+00 0.00000E+00
 -1        29 1.16777E+01 3.74439E+00 0.00000E+00
 -1        30 1.33350E+01 3.77332E+00 0.00000E+00
 -1        31 1.49923E+01 3.80225E+00 0.00000E+00
 -1        32 1.66497E+01 3.83118E+00 0.00000E+00
 -1        33 1.83071E+01 3.86010E+00 0.00000E+00
 -1        34 1.99644E+01 3.88903E+00 0.00000E+00
 -1        35 2.16217E+01 3.91796E+00 0.00000E+00
 -1        36 2.32791E+01 3.94689E+00 0.00000E+00
 -1        37 2.49364E+01 3.97582E+00 0.00000E+00
 -1        38 2.65938E+01 4.00475E+00 0.00000E+00
 -1        39 2.82512E+01 4.03368E+00 0.00000E+00
 -1        40 2.99085E+01 4.06261E+00 0.00000E+00
 -1        41 3.15658E+01 4.09154E+00 0.00000E+00
 -1        42 7.53428E+00 3.67207E+00 0.00000E+00
 -1        43 9.19162E+00 3.70099E+00 0.00000E+00
 -1        44 1.08490E+01 3.72992E+00 0.00000E+00
 -1        45 1.25063E+01 3.75885E+00 0.00000E+00
 -1        46 1.41637E+01 3.78778E+00 0.00000E+00
 -1        47 1.58210E+01 3.81671E+00 0.00000E+00
 -1        48 1.74784E+01 3.84564E+00 0.00000E+00
 -1        49 1.91357E+01 3.87457E+00 0.00000E+00
 -1        50 2.07931E+01 3.90350E+00 0.00000E+00
 -1        51 2.24504E+01 3.93243E+00 0.00000E+00
 -1        52 2.41078E+01 3.96136E+00 0.00000E+00
 -1        53 2.57651E+01 3.99028E+00 0.00000E+00
 -1        54 2.74225E+01 4.01921E+00 0.00000E+00
 -1        55 2.90798E+01 4.04814E+00 0.00000E+00
 -1        56 3.07372E+01 4.07707E+00 0.00000E+00
 -1        57 3.23945E+01 4.10600E+00 0.00000E+00
 -1        58 3.36804E+01 4.12845E+00 0.00000E+00
 -1        59 3.41376E+01 4.13643E+00 0.00000E+00
 -1        60 3.45948E+01 4.14441E+00 0.00000E+00
 -1        61 3.34518E+01 4.12446E+00 0.00000E+00
 -1        62 3.39090E+01 4.13244E+00 0.00000E+00
 -1        63 3.43662E+01 4.14042E+00 0.00000E+00
 -1        64 3.48234E+01 4.14840E+00 0.00000E+00
 -1        65 3.50520E+01 5.21919E+00 0.00000E+00
 -1        66 3.50520E+01 6.28599E+00 0.00000E+00
 -1        67 3.50520E+01 7.35279E+00 0.00000E+00
 -1        68 3.50520E+01 4.68579E+00 0.00000E+00
 -1        69 3.50520E+01 5.75259E+00 0.00000E+00
 -1        70 3.50520E+01 6.81939E+00 0.00000E+00
 -1        71 3.50520E+01 7.88619E+00 0.00000E+00
 -1        72 3.34816E+01 8.71268E+00 0.00000E+00
 -1        73 3.19203E+01 9.05063E+00 0.00000E+00
 -1        74 3.03693E+01 9.43314E+00 0.00000E+00
 -1        75 2.88298E+01 9.85991E+00 0.00000E+00
 -1        76 2.73033E+01 1.03306E+01 0.00000E+00
 -1        77 2.57908E+01 1.08448E+01 0.00000E+00
 -1        78 2.42936E+01 1.14021E+01 0.00000E+00
 -1        79 2.28131E+01 1.20020E+01 0.00000E+00
 -1        80 2.13503E+01 1.26441E+01 0.00000E+00
 -1        81 1.99065E+01 1.33277E+01 0.00000E+00
 -1        82 1.84829E+01 1.40525E+01 0.00000E+00
 -1        83 1.70806E+01 1.48177E+01 0.00000E+00
 -1        84 1.57008E+01 1.56228E+01 0.00000E+00
 -1        85 1.43446E+01 1.64670E+01 0.00000E+00
 -1        86 1.30132E+01 1.73498E+01 0.00000E+00
 -1        87 1.17075E+01 1.82702E+01 0.00000E+00
 -1        88 1.04288E+01 1.92277E+01 0.00000E+00
 -1        89 9.17798E+00 2.02215E+01 0.00000E+00
 -1        90 7.95614E+00 2.12506E+01 0.00000E+00
 -1        91 3.42658E+01 8.56052E+00 0.00000E+00
 -1        92 3.26997E+01 8.87607E+00 0.00000E+00
 -1        93 3.11434E+01 9.23633E+00 0.00000E+00
 -1        94 2.95980E+01 9.64101E+00 0.00000E+00
 -1        95 2.80649E+01 1.00898E+01 0.00000E+00
 -1        96 2.65452E+01 1.05823E+01 0.00000E+00
 -1        97 2.50402E+01 1.11180E+01 0.00000E+00
 -1        98 2.35512E+01 1.16967E+01 0.00000E+00
 -1        99 2.20794E+01 1.23178E+01 0.00000E+00
 -1       100 2.06260E+01 1.29807E+01 0.00000E+00
 -1       101 1.91921E+01 1.36850E+01 0.00000E+00
 -1       102 1.77790E+01 1.44301E+01 0.00000E+00
 -1       103 1.63878E+01 1.52153E+01 0.00000E+00
 -1       104 1.50197E+01 1.60401E+01 0.00000E+00
 -1       105 1.36757E+01 1.69036E+01 0.00000E+00
 -1       106 1.23570E+01 1.78053E+01 0.00000E+00
 -1       107 1.10647E+01 1.87444E+01 0.00000E+00
 -1       108 9.79982E+00 1.97201E+01 0.00000E+00
 -1       109 8.56338E+00 2.07317E+01 0.00000E+00
 -1       110 7.35640E+00 2.17782E+01 0.00000E+00
 -1       111 5.99467E+00 2.30152E+01 0.00000E+00
 -1       112 5.38402E+00 2.38623E+01 0.00000E+00
 -1       113 4.88306E+00 2.47785E+01 0.00000E+00
 -1       114 4.49953E+00 2.57497E+01 0.00000E+00
 -1       115 4.23934E+00 2.67610E+01 0.00000E+00
 -1       116 4.10651E+00 2.77967E+01 0.00000E+00
 -1       117 4.10307E+00 2.88409E+01 0.00000E+00
 -1       118 6.33825E+00 2.26218E+01 0.00000E+00
 -1       119 5.67618E+00 2.34293E+01 0.00000E+00
 -1       120 5.11930E+00 2.43126E+01 0.00000E+00
 -1       121 4.67621E+00 2.52581E+01 0.00000E+00
 -1       122 4.35373E+00 2.62513E+01 0.00000E+00
 -1       123 4.15683E+00 2.72768E+01 0.00000E+00
 -1       124 4.08856E+00 2.83187E+01 0.00000E+00
 -1       125 4.14997E+00 2.93611E+01 0.00000E+00
 -1       126 3.68085E+00 3.04567E+01 0.00000E+00
 -1       127 3.09451E+00 3.10431E+01 0.00000E+00
 -1       128 2.66851E+00 3.14691E+01 0.00000E+00
 -1       129 2.24251E+00 3.18951E+01 0.00000E+00
 -1       130 1.93302E+00 3.22046E+01 0.00000E+00
 -1       131 1.62353E+00 3.25141E+01 0.00000E+00
 -1       132 1.39867E+00 3.27389E+01 0.00000E+00
 -1       133 1.17380E+00 3.29638E+01 0.00000E+00
 -1       134 1.01045E+00 3.31272E+01 0.00000E+00
 -1       135 8.47093E-01 3.32905E+01 0.00000E+00
 -1       136 7.28346E-01 3.34093E+01 0.00000E+00
 -1       137 3.97403E+00 3.01636E+01 0.00000E+00
 -1       138 3.38768E+00 3.07499E+01 0.00000E+00
 -1       139 2.88151E+00 3.12561E+01 0.00000E+00
 -1       140 2.45551E+00 3.16821E+01 0.00000E+00
 -1       141 2.08777E+00 3.20498E+01 0.00000E+00
 -1       142 1.77828E+00 3.23593E+01 0.00000E+00
 -1       143 1.51110E+00 3.26265E+01 0.00000E+00
 -1       144 1.28623E+00 3.28514E+01 0.00000E+00
 -1       145 1.09212E+00 3.30455E+01 0.00000E+00
 -1       146 9.28770E-01 3.32088E+01 0.00000E+00
 -1       147 7.87720E-01 3.33499E+01 0.00000E+00
 -1       148 6.68973E-01 3.34686E+01 0.00000E+00
 -1       149 3.04800E-01 3.35280E+01 0.00000E+00
 -1       150 4.57200E-01 3.35280E+01 0.00000E+00
 -1       151 1.52400E-01 3.35280E+01 0.00000E+00
 -1       152 0.00000E+00 3.33535E+01 0.00000E+00
 -1       153 0.00000E+00 3.31789E+01 0.00000E+00
 -1       154 0.00000E+00 3.29378E+01 0.00000E+00
 -1       155 0.00000E+00 3.26966E+01 0.00000E+00
 -1       156 0.00000E+00 3.23622E+01 0.00000E+00
 -1       157 0.00000E+00 3.20278E+01 0.00000E+00
 -1       158 0.00000E+00 3.15634E+01 0.00000E+00
 -1       159 0.00000E+00 3.10990E+01 0.00000E+00
 -1       160 0.00000E+00 3.04531E+01 0.00000E+00
 -1       161 0.00000E+00 2.98072E+01 0.00000E+00
 -1       162 0.00000E+00 2.89092E+01 0.00000E+00
 -1       163 0.00000E+00 2.80113E+01 0.00000E+00
 -1       164 0.00000E+00 2.67623E+01 0.00000E+00
 -1       165 0.00000E+00 2.55133E+01 0.00000E+00
 -1       166 0.00000E+00 2.37780E+01 0.00000E+00
 -1       167 0.00000E+00 2.20428E+01 0.00000E+00
 -1       168 0.00000E+00 1.96308E+01 0.00000E+00
 -1       169 0.00000E+00 1.72188E+01 0.00000E+00
 -1       170 0.00000E+00 1.38890E+01 0.00000E+00
 -1       171 0.00000E+00 1.05593E+01 0.00000E+00
 -1       172 0.00000E+00 7.48897E+00 0.00000E+00
 -1       173 0.00000E+00 4.41861E+00 0.00000E+00
 -1       174 0.00000E+00 2.20931E+00 0.00000E+00
 -1       175 0.00000E+00 3.34407E+01 0.00000E+00
 -1       176 0.00000E+00 3.32662E+01 0.00000E+00
 -1       177 0.00000E+00 3.30584E+01 0.00000E+00
 -1       178 0.00000E+00 3.28172E+01 0.00000E+00
 -1       179 0.00000E+00 3.25294E+01 0.00000E+00
 -1       180 0.00000E+00 3.21950E+01 0.00000E+00
 -1       181 0.00000E+00 3.17956E+01 0.00000E+00
 -1       182 0.00000E+00 3.13312E+01 0.00000E+00
 -1       183 0.00000E+00 3.07760E+01 0.00000E+00
 -1       184 0.00000E+00 3.01301E+01 0.00000E+00
 -1       185 0.00000E+00 2.93582E+01 0.00000E+00
 -1       186 0.00000E+00 2.84602E+01 0.00000E+00
 -1       187 0.00000E+00 2.73868E+01 0.00000E+00
 -1       188 0.00000E+00 2.61378E+01 0.00000E+00
 -1       189 0.00000E+00 2.46456E+01 0.00000E+00
 -1       190 0.00000E+00 2.29104E+01 0.00000E+00
 -1       191 0.00000E+00 2.08368E+01 0.00000E+00
 -1       192 0.00000E+00 1.84248E+01 0.00000E+00
 -1       193 0.00000E+00 1.55539E+01 0.00000E+00
 -1       194 0.00000E+00 1.22242E+01 0.00000E+00
 -1       195 0.00000E+00 9.02414E+00 0.00000E+00
 -1       196 0.00000E+00 5.95379E+00 0.00000E+00
 -1       197 0.00000E+00 3.31396E+00 0.00000E+00
 -1       198 0.00000E+00 1.10465E+00 0.00000E+00
 -1       199 9.62843E+00 6.44974E+00 0.00000E+00
 -1       200 1.25829E+01 1.40126E+01 0.00000E+00
 -1       201 1.81702E+01 1.06202E+01 0.00000E+00
 -1       202 1.75061E+00 3.10431E+01 0.00000E+00
 -1       203 4.82144E+00 1.62799E+01 0.00000E+00
 -1       204 8.74252E-01 3.25820E+01 0.00000E+00
 -1       205 7.64825E-01 3.29145E+01 0.00000E+00
 -1       206 2.38236E+01 7.60030E+00 0.00000E+00
 -1       207 5.52757E+00 2.11932E+01 0.00000E+00
 -1       208 3.18133E+01 6.29966E+00 0.00000E+00
 -1       209 2.33664E+00 2.55825E+01 0.00000E+00
 -1       210 1.35580E+00 2.95566E+01 0.00000E+00
 -1       211 1.61963E+01 7.51416E+00 0.00000E+00
 -1       212 2.55839E+00 2.31121E+00 0.00000E+00
 -1       213 6.90230E-01 3.18432E+01 0.00000E+00
 -1       214 2.52198E+00 2.98153E+01 0.00000E+00
 -1       215 3.20481E+00 4.41650E+00 0.00000E+00
 -1       216 2.99440E+01 6.69582E+00 0.00000E+00
 -1       217 4.00049E+00 3.11121E+00 0.00000E+00
 -1       218 7.32646E+00 1.82343E+01 0.00000E+00
 -1       219 3.32865E+01 5.36242E+00 0.00000E+00
 -1       220 3.41564E+01 5.25835E+00 0.00000E+00
 -1       221 9.49712E-01 3.08857E+01 0.00000E+00
 -1       222 5.57383E-01 3.25779E+01 0.00000E+00
 -1       223 1.32704E+00 2.06625E+00 0.00000E+00
 -1       224 1.26318E+00 3.19087E+01 0.00000E+00
 -1       225 2.04899E+00 2.80590E+01 0.00000E+00
 -1       226 3.37582E+01 6.41749E+00 0.00000E+00
 -1       227 3.49110E+00 2.07391E+01 0.00000E+00
 -1       228 4.26966E-01 3.30648E+01 0.00000E+00
 -1       229 1.44572E-01 3.31050E+01 0.00000E+00
 -1       230 1.31065E+01 6.73836E+00 0.00000E+00
 -1       231 1.51731E+01 1.22304E+01 0.00000E+00
 -1       232 5.39862E+00 1.26423E+01 0.00000E+00
 -1       233 2.13047E+01 9.29772E+00 0.00000E+00
 -1       234 6.07929E+00 5.50632E+00 0.00000E+00
 -1       235 7.75080E+00 1.41555E+01 0.00000E+00
 -1       236 9.84188E+00 1.61124E+01 0.00000E+00
 -1       237 2.68005E+01 7.27671E+00 0.00000E+00
 -1       238 2.00607E+01 6.77492E+00 0.00000E+00
 -1       239 3.01004E+00 2.30297E+01 0.00000E+00
 -1       240 4.57514E+00 7.44830E+00 0.00000E+00
 -1       241 8.80814E+00 9.53374E+00 0.00000E+00
 -1       242 1.28531E+01 9.59161E+00 0.00000E+00
 -1       243 2.24909E+01 6.22651E+00 0.00000E+00
 -1       244 1.06216E+01 1.17925E+01 0.00000E+00
 -1       245 1.56639E+00 2.88427E+01 0.00000E+00
 -1       246 2.40584E+00 2.89157E+01 0.00000E+00
 -1       247 1.91954E+00 2.96587E+01 0.00000E+00
 -1       248 7.91611E-01 3.31264E+01 0.00000E+00
 -1       249 4.66873E+00 4.93397E+00 0.00000E+00
 -1       250 5.42919E+00 6.48882E+00 0.00000E+00
 -1       251 3.57394E+00 6.07625E+00 0.00000E+00
 -1       252 3.41338E+01 7.32896E+00 0.00000E+00
 -1       253 3.43949E+01 6.29217E+00 0.00000E+00
 -1       254 4.68407E+00 1.43595E+01 0.00000E+00
 -1       255 6.73381E+00 1.33188E+01 0.00000E+00
 -1       256 6.45023E+00 1.52406E+01 0.00000E+00
 -1       257 5.93140E-01 3.30192E+01 0.00000E+00
 -1       258 4.40117E-01 3.28453E+01 0.00000E+00
 -1       259 6.85452E-01 3.27387E+01 0.00000E+00
 -1       260 2.27753E+01 7.11014E+00 0.00000E+00
 -1       261 2.29866E+01 5.53828E+00 0.00000E+00
 -1       262 1.95425E+00 2.09911E+01 0.00000E+00
 -1       263 3.19920E+00 2.21103E+01 0.00000E+00
 -1       264 1.51630E+00 2.28173E+01 0.00000E+00
 -1       265 2.81910E+00 3.04482E+01 0.00000E+00
 -1       266 3.32081E+00 2.96782E+01 0.00000E+00
 -1       267 1.09165E+01 9.35524E+00 0.00000E+00
 -1       268 1.17866E+01 1.08841E+01 0.00000E+00
 -1       269 9.71296E+00 1.07963E+01 0.00000E+00
 -1       270 1.46967E+01 8.75810E+00 0.00000E+00
 -1       271 1.28065E+01 8.07539E+00 0.00000E+00
 -1       272 1.45595E+01 6.90322E+00 0.00000E+00
 -1       273 5.14781E+00 3.47579E+00 0.00000E+00
 -1       274 4.23762E+00 2.40368E+00 0.00000E+00
 -1       275 3.25475E+00 2.61380E+00 0.00000E+00
 -1       276 3.64923E+00 3.71860E+00 0.00000E+00
 -1       277 2.65586E+00 3.29684E+00 0.00000E+00
 -1       278 4.63538E+00 2.27978E+01 0.00000E+00
 -1       279 6.29686E+00 2.15627E+01 0.00000E+00
 -1       280 3.26057E+01 5.62638E+00 0.00000E+00
 -1       281 3.35157E+01 5.81850E+00 0.00000E+00
 -1       282 3.29538E+01 6.54166E+00 0.00000E+00
 -1       283 1.17028E-01 3.29133E+01 0.00000E+00
 -1       284 6.20520E-02 3.31346E+01 0.00000E+00
 -1       285 1.23730E-01 3.33003E+01 0.00000E+00
 -1       286 3.41508E+01 4.76489E+00 0.00000E+00
 -1       287 3.37478E+01 5.29164E+00 0.00000E+00
 -1       288 3.31850E+01 4.75362E+00 0.00000E+00
 -1       289 3.36988E+01 4.73179E+00 0.00000E+00
 -1       290 1.90536E+01 1.19942E+01 0.00000E+00
 -1       291 1.61566E+01 1.35380E+01 0.00000E+00
 -1       292 1.66361E+01 1.13892E+01 0.00000E+00
 -1       293 1.75823E+01 1.27435E+01 0.00000E+00
 -1       294 2.48958E+01 9.33157E+00 0.00000E+00
 -1       295 2.20693E+01 1.06365E+01 0.00000E+00
 -1       296 2.27280E+01 8.58940E+00 0.00000E+00
 -1       297 2.35480E+01 9.96344E+00 0.00000E+00
 -1       298 1.07939E+01 1.71866E+01 0.00000E+00
 -1       299 1.12202E+01 1.50428E+01 0.00000E+00
 -1       300 1.34653E+01 1.52504E+01 0.00000E+00
 -1       301 1.21209E+01 1.62017E+01 0.00000E+00
 -1       302 1.32706E+01 5.26869E+00 0.00000E+00
 -1       303 1.64325E+01 5.67381E+00 0.00000E+00
 -1       304 1.48287E+01 5.42755E+00 0.00000E+00
 -1       305 1.99190E+01 5.35991E+00 0.00000E+00
 -1       306 1.83623E+01 7.09093E+00 0.00000E+00
 -1       307 1.82378E+01 5.50765E+00 0.00000E+00
 -1       308 2.15005E+01 6.42754E+00 0.00000E+00
 -1       309 2.14754E+01 5.28050E+00 0.00000E+00
 -1       310 1.38710E+01 1.31172E+01 0.00000E+00
 -1       311 1.47962E+01 1.43694E+01 0.00000E+00
 -1       312 1.97566E+01 9.93622E+00 0.00000E+00
 -1       313 2.05602E+01 1.12964E+01 0.00000E+00
 -1       314 8.25717E+00 1.91960E+01 0.00000E+00
 -1       315 8.54846E+00 1.71611E+01 0.00000E+00
 -1       316 9.50887E+00 1.81876E+01 0.00000E+00
 -1       317 1.40208E+01 1.08852E+01 0.00000E+00
 -1       318 1.15938E+01 1.28836E+01 0.00000E+00
 -1       319 1.28283E+01 1.19117E+01 0.00000E+00
 -1       320 2.66811E+01 5.61930E+00 0.00000E+00
 -1       321 3.04267E+01 5.50394E+00 0.00000E+00
 -1       322 2.81718E+01 7.03668E+00 0.00000E+00
 -1       323 2.83134E+01 5.54587E+00 0.00000E+00
 -1       324 1.72322E+01 9.16886E+00 0.00000E+00
 -1       325 1.56346E+01 1.00238E+01 0.00000E+00
 -1       326 8.79171E+00 1.51050E+01 0.00000E+00
 -1       327 6.11340E+00 1.72816E+01 0.00000E+00
 -1       328 7.45972E+00 1.61880E+01 0.00000E+00
 -1       329 3.13523E+00 2.78541E+01 0.00000E+00
 -1       330 2.16808E+00 2.67797E+01 0.00000E+00
 -1       331 3.49010E+00 2.56220E+01 0.00000E+00
 -1       332 3.22290E+00 2.67491E+01 0.00000E+00
 -1       333 1.86038E+00 2.18502E+00 0.00000E+00
 -1       334 1.22944E+00 1.13360E+00 0.00000E+00
 -1       335 2.48997E+00 1.13952E+00 0.00000E+00
 -1       336 1.84986E+00 1.10947E+00 0.00000E+00
 -1       337 2.13971E+00 3.04061E+01 0.00000E+00
 -1       338 1.36790E+00 3.09332E+01 0.00000E+00
 -1       339 1.13522E+00 3.02652E+01 0.00000E+00
 -1       340 1.65411E+00 3.02981E+01 0.00000E+00
 -1       341 3.16802E+00 1.18519E+01 0.00000E+00
 -1       342 2.36564E+00 1.66739E+01 0.00000E+00
 -1       343 2.55531E+00 1.41887E+01 0.00000E+00
 -1       344 9.19580E+00 1.29383E+01 0.00000E+00
 -1       345 1.02094E+01 1.39799E+01 0.00000E+00
 -1       346 1.66357E+00 4.57219E+00 0.00000E+00
 -1       347 2.79857E+00 8.68170E+00 0.00000E+00
 -1       348 1.97490E+00 6.68090E+00 0.00000E+00
 -1       349 2.59863E+00 2.43576E+01 0.00000E+00
 -1       350 3.91375E+00 2.44086E+01 0.00000E+00
 -1       351 2.55658E+01 7.46880E+00 0.00000E+00
 -1       352 2.50425E+01 5.65055E+00 0.00000E+00
 -1       353 1.14320E+01 6.64899E+00 0.00000E+00
 -1       354 9.87249E+00 5.10894E+00 0.00000E+00
 -1       355 1.15989E+01 5.22137E+00 0.00000E+00
 -1       356 3.22008E+00 2.88224E+01 0.00000E+00
 -1       357 1.50034E+00 3.14890E+01 0.00000E+00
 -1       358 9.94206E-01 3.18377E+01 0.00000E+00
 -1       359 8.05066E-01 3.14000E+01 0.00000E+00
 -1       360 1.16688E+00 3.14150E+01 0.00000E+00
 -1       361 2.78297E+01 8.56606E+00 0.00000E+00
 -1       362 2.64150E+01 8.91945E+00 0.00000E+00
 -1       363 7.82124E+00 6.06456E+00 0.00000E+00
 -1       364 9.23725E+00 7.83077E+00 0.00000E+00
 -1       365 6.52442E+00 8.55324E+00 0.00000E+00
 -1       366 7.34713E+00 7.29535E+00 0.00000E+00
 -1       367 7.77528E-01 3.24891E+01 0.00000E+00
 -1       368 9.93160E-01 3.28027E+01 0.00000E+00
 -1       369 1.17533E+00 2.55074E+01 0.00000E+00
 -1       370 1.30830E+00 2.41206E+01 0.00000E+00
 -1       371 6.46624E+00 4.54762E+00 0.00000E+00
 -1       372 4.93885E+00 4.15467E+00 0.00000E+00
 -1       373 8.13849E+00 4.86670E+00 0.00000E+00
 -1       374 9.19584E-01 2.83806E+00 0.00000E+00
 -1       375 1.70702E+00 3.25495E+00 0.00000E+00
 -1       376 4.65172E+00 2.08361E+01 0.00000E+00
 -1       377 4.16210E+00 2.19147E+01 0.00000E+00
 -1       378 1.11478E+01 8.02690E+00 0.00000E+00
 -1       379 1.00262E+00 2.79155E+01 0.00000E+00
 -1       380 1.08651E+00 2.67412E+01 0.00000E+00
 -1       381 1.05703E+00 3.22925E+01 0.00000E+00
 -1       382 1.46345E+00 3.21830E+01 0.00000E+00
 -1       383 1.23579E+00 3.24864E+01 0.00000E+00
 -1       384 2.02082E+00 3.14398E+01 0.00000E+00
 -1       385 1.72941E+00 3.18291E+01 0.00000E+00
 -1       386 4.01848E+00 1.87497E+01 0.00000E+00
 -1       387 2.08459E+00 1.90114E+01 0.00000E+00
 -1       388 2.83034E-01 3.30828E+01 0.00000E+00
 -1       389 2.83720E-01 3.26013E+01 0.00000E+00
 -1       390 2.70982E-01 3.28590E+01 0.00000E+00
 -1       391 3.52511E-01 3.19116E+01 0.00000E+00
 -1       392 6.04923E-01 3.22156E+01 0.00000E+00
 -1       393 3.10289E-01 3.22727E+01 0.00000E+00
 -1       394 4.94078E-01 3.32774E+01 0.00000E+00
 -1       395 2.95286E-01 3.33014E+01 0.00000E+00
 -1       396 6.97578E-01 2.96212E+01 0.00000E+00
 -1       397 4.87507E-01 3.09492E+01 0.00000E+00
 -1       398 5.80075E-01 3.03222E+01 0.00000E+00
 -1       399 4.12749E-01 3.14563E+01 0.00000E+00
 -1       400 8.53267E-01 2.88008E+01 0.00000E+00
 -1       401 3.12334E+01 7.54684E+00 0.00000E+00
 -1       402 3.29507E+01 7.53254E+00 0.00000E+00
 -1       403 2.40866E+00 3.09405E+01 0.00000E+00
 -1       404 8.52179E-01 3.21994E+01 0.00000E+00
 -1       405 7.01181E+00 1.10727E+01 0.00000E+00
 -1       406 8.18695E+00 1.20018E+01 0.00000E+00
 -1       407 6.32989E+00 1.97049E+01 0.00000E+00
 -1       408 5.27057E+00 1.91272E+01 0.00000E+00
 -1       409 2.05786E+01 8.04705E+00 0.00000E+00
 -1       410 1.89662E+01 8.56239E+00 0.00000E+00
 -1       411 3.45706E+01 5.71853E+00 0.00000E+00
 -1       412 3.40584E+01 5.78439E+00 0.00000E+00
 -1       413 3.36088E+00 1.78122E+00 0.00000E+00
 -1       414 2.93421E+01 8.17756E+00 0.00000E+00
 -1       415 3.45946E+01 4.96037E+00 0.00000E+00
 -1       416 3.19526E+01 4.99151E+00 0.00000E+00
 -1       417 6.47962E-01 3.32123E+01 0.00000E+00
 -1       418 2.20115E+01 7.50361E+00 0.00000E+00
 -1       419 4.83819E+00 1.00411E+01 0.00000E+00
 -1       420 6.56090E-01 1.59495E+00 0.00000E+00
 -1       421 7.21002E+00 2.04285E+01 0.00000E+00
 -1       422 1.96924E+00 2.91066E+01 0.00000E+00
 -1       423 9.14413E-01 3.30730E+01 0.00000E+00
 -1       424 4.55291E+00 5.76770E+00 0.00000E+00
 -1       425 3.45402E+01 6.98924E+00 0.00000E+00
 -1       426 5.96948E+00 1.43571E+01 0.00000E+00
 -1       427 5.51799E-01 3.28741E+01 0.00000E+00
 -1       428 2.22238E+00 2.19785E+01 0.00000E+00
 -1       429 3.27937E+00 3.02021E+01 0.00000E+00
 -1       430 1.08307E+01 1.02758E+01 0.00000E+00
 -1       431 1.41011E+01 7.92734E+00 0.00000E+00
 -1       432 5.01761E+00 2.88500E+00 0.00000E+00
 -1       433 3.15321E+00 3.20471E+00 0.00000E+00
 -1       434 5.80986E+00 2.23738E+01 0.00000E+00
 -1       435 3.30536E+01 5.96871E+00 0.00000E+00
 -1       436 5.70170E-02 3.29938E+01 0.00000E+00
 -1       437 5.84430E-02 3.32645E+01 0.00000E+00
 -1       438 3.41442E+01 4.45066E+00 0.00000E+00
 -1       439 3.39248E+01 4.74834E+00 0.00000E+00
 -1       440 3.36896E+01 4.43012E+00 0.00000E+00
 -1       441 3.41536E+01 5.01162E+00 0.00000E+00
 -1       442 3.39521E+01 5.27499E+00 0.00000E+00
 -1       443 3.37233E+01 5.01171E+00 0.00000E+00
 -1       444 3.35171E+01 5.32703E+00 0.00000E+00
 -1       445 3.32357E+01 5.05802E+00 0.00000E+00
 -1       446 3.34419E+01 4.74271E+00 0.00000E+00
 -1       447 3.32041E+01 4.43705E+00 0.00000E+00
 -1       448 1.86119E+01 1.13072E+01 0.00000E+00
 -1       449 1.83180E+01 1.23688E+01 0.00000E+00
 -1       450 1.71092E+01 1.20663E+01 0.00000E+00
 -1       451 1.74031E+01 1.10047E+01 0.00000E+00
 -1       452 1.94801E+01 1.26610E+01 0.00000E+00
 -1       453 1.80326E+01 1.33980E+01 0.00000E+00
 -1       454 1.66186E+01 1.41779E+01 0.00000E+00
 -1       455 1.68694E+01 1.31408E+01 0.00000E+00
 -1       456 1.56649E+01 1.28842E+01 0.00000E+00
 -1       457 1.59046E+01 1.18098E+01 0.00000E+00
 -1       458 2.43597E+01 8.46593E+00 0.00000E+00
 -1       459 2.42219E+01 9.64750E+00 0.00000E+00
 -1       460 2.31380E+01 9.27642E+00 0.00000E+00
 -1       461 2.32758E+01 8.09485E+00 0.00000E+00
 -1       462 2.53433E+01 1.00882E+01 0.00000E+00
 -1       463 2.39208E+01 1.06827E+01 0.00000E+00
 -1       464 2.24412E+01 1.13193E+01 0.00000E+00
 -1       465 2.28087E+01 1.03000E+01 0.00000E+00
 -1       466 2.16870E+01 9.96713E+00 0.00000E+00
 -1       467 2.20164E+01 8.94356E+00 0.00000E+00
 -1       468 1.25670E+01 1.67757E+01 0.00000E+00
 -1       469 1.27931E+01 1.57260E+01 0.00000E+00
 -1       470 1.39050E+01 1.58587E+01 0.00000E+00
 -1       471 1.12507E+01 1.77284E+01 0.00000E+00
 -1       472 1.14574E+01 1.66941E+01 0.00000E+00
 -1       473 1.03179E+01 1.66495E+01 0.00000E+00
 -1       474 1.05310E+01 1.55776E+01 0.00000E+00
 -1       475 1.16705E+01 1.56223E+01 0.00000E+00
 -1       476 1.19016E+01 1.45277E+01 0.00000E+00
 -1       477 1.30241E+01 1.46315E+01 0.00000E+00
 -1       478 1.31885E+01 6.00353E+00 0.00000E+00
 -1       479 1.40496E+01 5.34812E+00 0.00000E+00
 -1       480 1.46941E+01 6.16538E+00 0.00000E+00
 -1       481 1.38330E+01 6.82079E+00 0.00000E+00
 -1       482 1.33028E+01 4.52101E+00 0.00000E+00
 -1       483 1.49105E+01 4.61490E+00 0.00000E+00
 -1       484 1.65411E+01 4.75249E+00 0.00000E+00
 -1       485 1.56306E+01 5.55068E+00 0.00000E+00
 -1       486 1.63144E+01 6.59398E+00 0.00000E+00
 -1       487 1.53779E+01 7.20869E+00 0.00000E+00
 -1       488 1.82724E+01 4.68388E+00 0.00000E+00
 -1       489 1.73351E+01 5.59073E+00 0.00000E+00
 -1       490 1.99417E+01 4.62447E+00 0.00000E+00
 -1       491 1.90784E+01 5.43378E+00 0.00000E+00
 -1       492 1.99899E+01 6.06742E+00 0.00000E+00
 -1       493 1.92115E+01 6.93293E+00 0.00000E+00
 -1       494 1.83000E+01 6.29929E+00 0.00000E+00
 -1       495 1.72793E+01 7.30255E+00 0.00000E+00
 -1       496 2.15486E+01 4.59923E+00 0.00000E+00
 -1       497 2.06972E+01 5.32020E+00 0.00000E+00
 -1       498 2.31329E+01 4.74258E+00 0.00000E+00
 -1       499 2.22310E+01 5.40939E+00 0.00000E+00
 -1       500 2.27388E+01 5.88239E+00 0.00000E+00
 -1       501 2.19957E+01 6.32702E+00 0.00000E+00
 -1       502 2.14879E+01 5.85402E+00 0.00000E+00
 -1       503 2.07806E+01 6.60123E+00 0.00000E+00
 -1       504 1.52485E+01 1.49961E+01 0.00000E+00
 -1       505 1.54764E+01 1.39537E+01 0.00000E+00
 -1       506 1.41308E+01 1.48099E+01 0.00000E+00
 -1       507 1.32269E+01 1.35649E+01 0.00000E+00
 -1       508 1.43336E+01 1.37433E+01 0.00000E+00
 -1       509 1.45221E+01 1.26738E+01 0.00000E+00
 -1       510 2.09553E+01 1.19702E+01 0.00000E+00
 -1       511 2.13148E+01 1.09665E+01 0.00000E+00
 -1       512 1.98069E+01 1.16453E+01 0.00000E+00
 -1       513 1.89634E+01 1.02782E+01 0.00000E+00
 -1       514 2.01584E+01 1.06163E+01 0.00000E+00
 -1       515 2.05306E+01 9.61697E+00 0.00000E+00
 -1       516 9.96882E+00 1.87077E+01 0.00000E+00
 -1       517 1.01514E+01 1.76871E+01 0.00000E+00
 -1       518 8.71758E+00 1.97087E+01 0.00000E+00
 -1       519 8.88302E+00 1.86918E+01 0.00000E+00
 -1       520 7.79182E+00 1.87151E+01 0.00000E+00
 -1       521 7.93746E+00 1.76977E+01 0.00000E+00
 -1       522 9.02866E+00 1.76743E+01 0.00000E+00
 -1       523 9.19517E+00 1.66367E+01 0.00000E+00
 -1       524 1.34370E+01 1.02384E+01 0.00000E+00
 -1       525 1.34246E+01 1.13984E+01 0.00000E+00
 -1       526 1.23075E+01 1.13979E+01 0.00000E+00
 -1       527 1.23199E+01 1.02378E+01 0.00000E+00
 -1       528 1.45970E+01 1.15578E+01 0.00000E+00
 -1       529 1.33497E+01 1.25144E+01 0.00000E+00
 -1       530 1.20884E+01 1.34481E+01 0.00000E+00
 -1       531 1.22111E+01 1.23976E+01 0.00000E+00
 -1       532 1.11077E+01 1.23381E+01 0.00000E+00
 -1       533 1.12041E+01 1.13383E+01 0.00000E+00
 -1       534 2.67408E+01 6.44801E+00 0.00000E+00
 -1       535 2.74972E+01 5.58258E+00 0.00000E+00
 -1       536 2.82426E+01 6.29127E+00 0.00000E+00
 -1       537 2.74862E+01 7.15670E+00 0.00000E+00
 -1       538 2.66374E+01 4.81203E+00 0.00000E+00
 -1       539 2.82823E+01 4.78977E+00 0.00000E+00
 -1       540 3.01676E+01 4.78327E+00 0.00000E+00
 -1       541 2.93701E+01 5.52490E+00 0.00000E+00
 -1       542 3.01854E+01 6.09988E+00 0.00000E+00
 -1       543 2.90579E+01 6.86625E+00 0.00000E+00
 -1       544 1.67143E+01 8.34151E+00 0.00000E+00
 -1       545 1.64334E+01 9.59632E+00 0.00000E+00
 -1       546 1.51657E+01 9.39094E+00 0.00000E+00
 -1       547 1.54465E+01 8.13613E+00 0.00000E+00
 -1       548 1.77012E+01 9.89453E+00 0.00000E+00
 -1       549 1.61353E+01 1.07065E+01 0.00000E+00
 -1       550 1.48277E+01 1.04545E+01 0.00000E+00
 -1       551 1.37749E+01 9.17486E+00 0.00000E+00
 -1       552 8.27125E+00 1.46302E+01 0.00000E+00
 -1       553 8.12572E+00 1.56465E+01 0.00000E+00
 -1       554 6.95498E+00 1.57143E+01 0.00000E+00
 -1       555 7.10051E+00 1.46980E+01 0.00000E+00
 -1       556 9.31680E+00 1.56087E+01 0.00000E+00
 -1       557 8.00409E+00 1.66745E+01 0.00000E+00
 -1       558 6.71993E+00 1.77579E+01 0.00000E+00
 -1       559 6.78656E+00 1.67348E+01 0.00000E+00
 -1       560 5.46742E+00 1.67808E+01 0.00000E+00
 -1       561 5.63584E+00 1.57603E+01 0.00000E+00
 -1       562 3.73112E+00 2.67550E+01 0.00000E+00
 -1       563 3.35650E+00 2.61855E+01 0.00000E+00
 -1       564 3.99482E+00 2.56858E+01 0.00000E+00
 -1       565 3.62087E+00 2.78254E+01 0.00000E+00
 -1       566 3.17907E+00 2.73016E+01 0.00000E+00
 -1       567 2.59211E+00 2.79565E+01 0.00000E+00
 -1       568 2.10854E+00 2.74193E+01 0.00000E+00
 -1       569 2.69549E+00 2.67644E+01 0.00000E+00
 -1       570 2.25236E+00 2.61811E+01 0.00000E+00
 -1       571 2.91337E+00 2.56022E+01 0.00000E+00
 -1       572 2.20938E+00 2.24812E+00 0.00000E+00
 -1       573 1.85512E+00 1.64725E+00 0.00000E+00
 -1       574 2.16991E+00 1.12449E+00 0.00000E+00
 -1       575 2.52418E+00 1.72537E+00 0.00000E+00
 -1       576 1.59371E+00 2.12563E+00 0.00000E+00
 -1       577 1.27824E+00 1.59992E+00 0.00000E+00
 -1       578 1.53965E+00 1.12153E+00 0.00000E+00
 -1       579 1.22432E+00 5.66800E-01 0.00000E+00
 -1       580 1.83933E+00 5.54733E-01 0.00000E+00
 -1       581 2.46418E+00 5.69759E-01 0.00000E+00
 -1       582 1.63767E+00 2.96076E+01 0.00000E+00
 -1       583 1.78683E+00 2.99784E+01 0.00000E+00
 -1       584 1.39466E+00 3.02816E+01 0.00000E+00
 -1       585 1.24551E+00 2.99109E+01 0.00000E+00
 -1       586 2.22076E+00 2.97370E+01 0.00000E+00
 -1       587 2.33084E+00 3.01107E+01 0.00000E+00
 -1       588 1.89691E+00 3.03521E+01 0.00000E+00
 -1       589 1.94516E+00 3.07246E+01 0.00000E+00
 -1       590 1.55926E+00 3.09882E+01 0.00000E+00
 -1       591 1.51101E+00 3.06157E+01 0.00000E+00
 -1       592 1.15881E+00 3.09095E+01 0.00000E+00
 -1       593 1.04246E+00 3.05754E+01 0.00000E+00
 -1       594 1.58401E+00 1.12056E+01 0.00000E+00
 -1       595 2.86167E+00 1.30203E+01 0.00000E+00
 -1       596 1.27766E+00 1.40389E+01 0.00000E+00
 -1       597 4.28332E+00 1.22471E+01 0.00000E+00
 -1       598 5.04135E+00 1.35009E+01 0.00000E+00
 -1       599 3.61969E+00 1.42741E+01 0.00000E+00
 -1       600 4.75276E+00 1.53197E+01 0.00000E+00
 -1       601 3.59354E+00 1.64769E+01 0.00000E+00
 -1       602 2.46048E+00 1.54313E+01 0.00000E+00
 -1       603 1.18282E+00 1.69463E+01 0.00000E+00
 -1       604 1.07148E+01 1.45114E+01 0.00000E+00
 -1       605 1.09016E+01 1.34318E+01 0.00000E+00
 -1       606 9.50055E+00 1.45425E+01 0.00000E+00
 -1       607 8.47330E+00 1.35469E+01 0.00000E+00
 -1       608 9.70260E+00 1.34591E+01 0.00000E+00
 -1       609 9.90871E+00 1.23654E+01 0.00000E+00
 -1       610 9.87448E-01 7.08494E+00 0.00000E+00
 -1       611 2.38673E+00 7.68130E+00 0.00000E+00
 -1       612 1.39929E+00 9.62051E+00 0.00000E+00
 -1       613 8.31786E-01 4.49540E+00 0.00000E+00
 -1       614 1.81923E+00 5.62655E+00 0.00000E+00
 -1       615 2.43419E+00 4.49435E+00 0.00000E+00
 -1       616 3.38937E+00 5.24638E+00 0.00000E+00
 -1       617 2.77442E+00 6.37858E+00 0.00000E+00
 -1       618 4.07454E+00 6.76228E+00 0.00000E+00
 -1       619 3.68686E+00 8.06500E+00 0.00000E+00
 -1       620 4.39841E+00 2.45935E+01 0.00000E+00
 -1       621 4.27456E+00 2.36032E+01 0.00000E+00
 -1       622 5.00970E+00 2.33300E+01 0.00000E+00
 -1       623 3.70193E+00 2.50153E+01 0.00000E+00
 -1       624 2.46763E+00 2.49700E+01 0.00000E+00
 -1       625 3.25619E+00 2.43831E+01 0.00000E+00
 -1       626 2.80433E+00 2.36937E+01 0.00000E+00
 -1       627 3.82271E+00 2.29138E+01 0.00000E+00
 -1       628 2.58618E+01 5.63493E+00 0.00000E+00
 -1       629 2.49895E+01 4.81319E+00 0.00000E+00
 -1       630 2.61831E+01 7.37276E+00 0.00000E+00
 -1       631 2.53041E+01 6.55968E+00 0.00000E+00
 -1       632 2.46947E+01 7.53455E+00 0.00000E+00
 -1       633 2.34051E+01 6.56929E+00 0.00000E+00
 -1       634 2.40146E+01 5.59441E+00 0.00000E+00
 -1       635 1.16383E+01 4.48288E+00 0.00000E+00
 -1       636 1.07357E+01 5.16516E+00 0.00000E+00
 -1       637 9.94639E+00 4.41220E+00 0.00000E+00
 -1       638 1.24347E+01 5.24504E+00 0.00000E+00
 -1       639 1.22692E+01 6.69367E+00 0.00000E+00
 -1       640 1.15154E+01 5.93518E+00 0.00000E+00
 -1       641 1.05302E+01 6.54937E+00 0.00000E+00
 -1       642 9.75046E+00 5.77934E+00 0.00000E+00
 -1       643 3.66158E+00 2.88316E+01 0.00000E+00
 -1       644 3.17766E+00 2.83383E+01 0.00000E+00
 -1       645 3.79400E+00 2.97743E+01 0.00000E+00
 -1       646 3.27045E+00 2.92503E+01 0.00000E+00
 -1       647 2.92139E+00 2.97468E+01 0.00000E+00
 -1       648 2.46391E+00 2.93655E+01 0.00000E+00
 -1       649 2.81296E+00 2.88691E+01 0.00000E+00
 -1       650 2.22742E+00 2.84873E+01 0.00000E+00
 -1       651 1.26739E+00 3.11741E+01 0.00000E+00
 -1       652 9.85972E-01 3.14075E+01 0.00000E+00
 -1       653 8.77389E-01 3.11429E+01 0.00000E+00
 -1       654 1.62548E+00 3.12660E+01 0.00000E+00
 -1       655 1.33361E+00 3.14520E+01 0.00000E+00
 -1       656 1.38176E+00 3.16988E+01 0.00000E+00
 -1       657 1.12869E+00 3.18732E+01 0.00000E+00
 -1       658 1.08054E+00 3.16263E+01 0.00000E+00
 -1       659 8.42218E-01 3.18405E+01 0.00000E+00
 -1       660 7.47648E-01 3.16216E+01 0.00000E+00
 -1       661 2.73151E+01 7.92139E+00 0.00000E+00
 -1       662 2.71223E+01 8.74275E+00 0.00000E+00
 -1       663 2.59904E+01 8.19413E+00 0.00000E+00
 -1       664 2.83298E+01 9.21298E+00 0.00000E+00
 -1       665 2.68591E+01 9.62501E+00 0.00000E+00
 -1       666 2.56554E+01 9.12551E+00 0.00000E+00
 -1       667 6.95026E+00 5.78544E+00 0.00000E+00
 -1       668 7.58419E+00 6.67996E+00 0.00000E+00
 -1       669 6.38816E+00 6.89208E+00 0.00000E+00
 -1       670 5.75424E+00 5.99757E+00 0.00000E+00
 -1       671 8.72483E+00 6.25715E+00 0.00000E+00
 -1       672 9.43284E+00 7.14026E+00 0.00000E+00
 -1       673 8.29219E+00 7.56306E+00 0.00000E+00
 -1       674 9.02269E+00 8.68225E+00 0.00000E+00
 -1       675 7.66628E+00 9.04349E+00 0.00000E+00
 -1       676 6.93578E+00 7.92430E+00 0.00000E+00
 -1       677 5.54978E+00 8.00077E+00 0.00000E+00
 -1       678 5.00216E+00 6.96856E+00 0.00000E+00
 -1       679 7.25138E-01 3.28266E+01 0.00000E+00
 -1       680 7.79852E-01 3.26603E+01 0.00000E+00
 -1       681 9.33706E-01 3.26923E+01 0.00000E+00
 -1       682 8.78993E-01 3.28586E+01 0.00000E+00
 -1       683 6.21418E-01 3.26583E+01 0.00000E+00
 -1       684 6.67456E-01 3.25335E+01 0.00000E+00
 -1       685 8.25890E-01 3.25355E+01 0.00000E+00
 -1       686 1.95346E+00 2.42391E+01 0.00000E+00
 -1       687 1.41230E+00 2.34689E+01 0.00000E+00
 -1       688 2.26317E+00 2.29235E+01 0.00000E+00
 -1       689 1.75598E+00 2.55449E+01 0.00000E+00
 -1       690 1.24181E+00 2.48140E+01 0.00000E+00
 -1       691 5.87664E-01 2.55103E+01 0.00000E+00
 -1       692 6.54151E-01 2.39493E+01 0.00000E+00
 -1       693 7.58151E-01 2.24301E+01 0.00000E+00
 -1       694 5.37401E+00 5.22014E+00 0.00000E+00
 -1       695 4.80379E+00 4.54432E+00 0.00000E+00
 -1       696 5.70254E+00 4.35115E+00 0.00000E+00
 -1       697 6.27276E+00 5.02697E+00 0.00000E+00
 -1       698 3.93677E+00 4.67523E+00 0.00000E+00
 -1       699 3.42702E+00 4.06755E+00 0.00000E+00
 -1       700 4.29404E+00 3.93663E+00 0.00000E+00
 -1       701 3.82486E+00 3.41490E+00 0.00000E+00
 -1       702 4.57415E+00 3.29350E+00 0.00000E+00
 -1       703 5.04333E+00 3.81523E+00 0.00000E+00
 -1       704 5.92671E+00 3.56670E+00 0.00000E+00
 -1       705 6.58592E+00 4.10261E+00 0.00000E+00
 -1       706 7.97986E+00 5.46563E+00 0.00000E+00
 -1       707 9.00549E+00 4.98782E+00 0.00000E+00
 -1       708 7.30236E+00 4.70716E+00 0.00000E+00
 -1       709 8.25072E+00 4.27662E+00 0.00000E+00
 -1       710 2.60713E+00 2.80403E+00 0.00000E+00
 -1       711 2.18144E+00 3.27589E+00 0.00000E+00
 -1       712 1.78370E+00 2.71999E+00 0.00000E+00
 -1       713 2.93033E+00 3.85667E+00 0.00000E+00
 -1       714 1.68530E+00 3.91357E+00 0.00000E+00
 -1       715 4.59792E-01 3.62834E+00 0.00000E+00
 -1       716 1.31330E+00 3.04650E+00 0.00000E+00
 -1       717 1.12331E+00 2.45216E+00 0.00000E+00
 -1       718 3.10462E+00 2.25700E+01 0.00000E+00
 -1       719 3.68065E+00 2.20125E+01 0.00000E+00
 -1       720 4.39874E+00 2.23563E+01 0.00000E+00
 -1       721 3.34515E+00 2.14247E+01 0.00000E+00
 -1       722 4.07141E+00 2.07876E+01 0.00000E+00
 -1       723 4.40691E+00 2.13754E+01 0.00000E+00
 -1       724 5.08965E+00 2.10146E+01 0.00000E+00
 -1       725 5.08147E+00 2.19955E+01 0.00000E+00
 -1       726 1.29565E+01 7.40688E+00 0.00000E+00
 -1       727 1.19771E+01 8.05115E+00 0.00000E+00
 -1       728 1.12899E+01 7.33794E+00 0.00000E+00
 -1       729 1.28298E+01 8.83350E+00 0.00000E+00
 -1       730 1.18848E+01 9.47343E+00 0.00000E+00
 -1       731 1.10322E+01 8.69107E+00 0.00000E+00
 -1       732 9.86234E+00 9.44449E+00 0.00000E+00
 -1       733 1.01925E+01 7.92883E+00 0.00000E+00
 -1       734 1.13092E+00 2.61243E+01 0.00000E+00
 -1       735 5.43253E-01 2.67517E+01 0.00000E+00
 -1       736 1.62729E+00 2.67605E+01 0.00000E+00
 -1       737 1.52580E+00 2.79872E+01 0.00000E+00
 -1       738 1.04456E+00 2.73283E+01 0.00000E+00
 -1       739 5.01308E-01 2.79634E+01 0.00000E+00
 -1       740 9.65641E-01 3.24373E+01 0.00000E+00
 -1       741 1.14641E+00 3.23895E+01 0.00000E+00
 -1       742 1.11448E+00 3.26445E+01 0.00000E+00
 -1       743 1.16010E+00 3.21006E+01 0.00000E+00
 -1       744 1.36331E+00 3.20459E+01 0.00000E+00
 -1       745 1.34962E+00 3.23347E+01 0.00000E+00
 -1       746 1.54349E+00 3.23485E+01 0.00000E+00
 -1       747 1.31723E+00 3.26127E+01 0.00000E+00
 -1       748 1.08348E+00 3.28832E+01 0.00000E+00
 -1       749 1.61487E+00 3.16590E+01 0.00000E+00
 -1       750 1.59643E+00 3.20060E+01 0.00000E+00
 -1       751 1.88571E+00 3.12415E+01 0.00000E+00
 -1       752 1.87511E+00 3.16345E+01 0.00000E+00
 -1       753 2.13166E+00 3.16675E+01 0.00000E+00
 -1       754 1.83121E+00 3.20168E+01 0.00000E+00
 -1       755 2.72268E+00 2.08651E+01 0.00000E+00
 -1       756 2.01942E+00 2.00012E+01 0.00000E+00
 -1       757 3.05154E+00 1.88805E+01 0.00000E+00
 -1       758 3.75479E+00 1.97444E+01 0.00000E+00
 -1       759 9.77125E-01 2.15170E+01 0.00000E+00
 -1       760 1.04230E+00 1.93211E+01 0.00000E+00
 -1       761 2.22512E+00 1.78426E+01 0.00000E+00
 -1       762 4.41996E+00 1.75148E+01 0.00000E+00
 -1       763 3.55000E-01 3.30738E+01 0.00000E+00
 -1       764 2.77008E-01 3.29709E+01 0.00000E+00
 -1       765 3.55549E-01 3.28521E+01 0.00000E+00
 -1       766 4.33542E-01 3.29550E+01 0.00000E+00
 -1       767 2.13803E-01 3.30939E+01 0.00000E+00
 -1       768 1.30800E-01 3.30092E+01 0.00000E+00
 -1       769 1.94005E-01 3.28861E+01 0.00000E+00
 -1       770 5.85140E-02 3.28049E+01 0.00000E+00
 -1       771 1.41860E-01 3.26490E+01 0.00000E+00
 -1       772 2.77351E-01 3.27302E+01 0.00000E+00
 -1       773 4.20552E-01 3.25896E+01 0.00000E+00
 -1       774 4.98750E-01 3.27116E+01 0.00000E+00
 -1       775 1.76256E-01 3.19697E+01 0.00000E+00
 -1       776 3.31400E-01 3.20922E+01 0.00000E+00
 -1       777 1.55144E-01 3.23174E+01 0.00000E+00
 -1       778 5.21371E-01 3.18774E+01 0.00000E+00
 -1       779 6.47577E-01 3.20294E+01 0.00000E+00
 -1       780 4.57606E-01 3.22442E+01 0.00000E+00
 -1       781 5.81153E-01 3.23968E+01 0.00000E+00
 -1       782 2.97004E-01 3.24370E+01 0.00000E+00
 -1       783 3.00043E-01 3.34147E+01 0.00000E+00
 -1       784 3.94682E-01 3.32894E+01 0.00000E+00
 -1       785 5.51839E-01 3.34027E+01 0.00000E+00
 -1       786 6.18650E-02 3.34141E+01 0.00000E+00
 -1       787 2.09508E-01 3.33008E+01 0.00000E+00
 -1       788 1.34151E-01 3.32026E+01 0.00000E+00
 -1       789 2.89160E-01 3.31921E+01 0.00000E+00
 -1       790 4.60522E-01 3.31711E+01 0.00000E+00
 -1       791 3.48789E-01 2.97142E+01 0.00000E+00
 -1       792 6.38827E-01 2.99717E+01 0.00000E+00
 -1       793 2.90038E-01 3.03876E+01 0.00000E+00
 -1       794 1.02669E+00 2.95889E+01 0.00000E+00
 -1       795 8.57646E-01 3.02937E+01 0.00000E+00
 -1       796 7.18610E-01 3.09175E+01 0.00000E+00
 -1       797 5.33791E-01 3.06357E+01 0.00000E+00
 -1       798 2.43753E-01 3.10241E+01 0.00000E+00
 -1       799 4.50128E-01 3.12028E+01 0.00000E+00
 -1       800 2.06374E-01 3.15098E+01 0.00000E+00
 -1       801 6.08908E-01 3.14282E+01 0.00000E+00
 -1       802 3.82630E-01 3.16840E+01 0.00000E+00
 -1       803 9.27942E-01 2.83581E+01 0.00000E+00
 -1       804 4.26634E-01 2.88550E+01 0.00000E+00
 -1       805 1.80769E+00 2.84508E+01 0.00000E+00
 -1       806 1.20983E+00 2.88217E+01 0.00000E+00
 -1       807 1.46110E+00 2.91996E+01 0.00000E+00
 -1       808 7.75423E-01 2.92110E+01 0.00000E+00
 -1       809 3.32162E+01 8.12261E+00 0.00000E+00
 -1       810 3.35423E+01 7.43075E+00 0.00000E+00
 -1       811 3.45929E+01 7.87427E+00 0.00000E+00
 -1       812 3.15769E+01 8.29873E+00 0.00000E+00
 -1       813 3.20921E+01 7.53969E+00 0.00000E+00
 -1       814 3.15234E+01 6.92325E+00 0.00000E+00
 -1       815 3.23836E+01 6.42066E+00 0.00000E+00
 -1       816 3.29523E+01 7.03710E+00 0.00000E+00
 -1       817 3.33560E+01 6.47958E+00 0.00000E+00
 -1       818 3.39460E+01 6.87323E+00 0.00000E+00
 -1       819 2.53859E+00 3.12048E+01 0.00000E+00
 -1       820 2.61388E+00 3.06943E+01 0.00000E+00
 -1       821 2.95680E+00 3.07456E+01 0.00000E+00
 -1       822 2.21474E+00 3.11901E+01 0.00000E+00
 -1       823 2.27419E+00 3.06733E+01 0.00000E+00
 -1       824 2.67054E+00 3.01317E+01 0.00000E+00
 -1       825 9.23192E-01 3.20186E+01 0.00000E+00
 -1       826 7.28551E-01 3.22075E+01 0.00000E+00
 -1       827 9.54604E-01 3.22460E+01 0.00000E+00
 -1       828 8.14853E-01 3.23443E+01 0.00000E+00
 -1       829 9.26055E+00 1.01650E+01 0.00000E+00
 -1       830 8.94995E+00 1.13991E+01 0.00000E+00
 -1       831 7.59938E+00 1.15372E+01 0.00000E+00
 -1       832 7.90998E+00 1.03032E+01 0.00000E+00
 -1       833 1.01673E+01 1.12944E+01 0.00000E+00
 -1       834 8.69137E+00 1.24700E+01 0.00000E+00
 -1       835 7.24230E+00 1.37371E+01 0.00000E+00
 -1       836 7.46038E+00 1.26603E+01 0.00000E+00
 -1       837 6.06621E+00 1.29806E+01 0.00000E+00
 -1       838 6.20521E+00 1.18575E+01 0.00000E+00
 -1       839 5.69198E+00 1.82044E+01 0.00000E+00
 -1       840 4.64453E+00 1.89384E+01 0.00000E+00
 -1       841 6.82818E+00 1.89696E+01 0.00000E+00
 -1       842 5.80023E+00 1.94160E+01 0.00000E+00
 -1       843 5.92873E+00 2.04491E+01 0.00000E+00
 -1       844 4.96115E+00 1.99816E+01 0.00000E+00
 -1       845 3.05887E+01 7.12133E+00 0.00000E+00
 -1       846 3.11200E+01 5.90180E+00 0.00000E+00
 -1       847 2.03197E+01 7.41098E+00 0.00000E+00
 -1       848 1.97724E+01 8.30472E+00 0.00000E+00
 -1       849 1.86643E+01 7.82666E+00 0.00000E+00
 -1       850 2.09417E+01 8.67239E+00 0.00000E+00
 -1       851 1.93614E+01 9.24930E+00 0.00000E+00
 -1       852 1.80992E+01 8.86563E+00 0.00000E+00
 -1       853 3.36369E+01 6.11800E+00 0.00000E+00
 -1       854 3.37870E+01 5.80145E+00 0.00000E+00
 -1       855 3.42267E+01 6.03828E+00 0.00000E+00
 -1       856 3.40766E+01 6.35483E+00 0.00000E+00
 -1       857 3.34011E+01 5.59046E+00 0.00000E+00
 -1       858 3.39031E+01 5.53801E+00 0.00000E+00
 -1       859 3.43635E+01 5.48844E+00 0.00000E+00
 -1       860 3.43145E+01 5.75146E+00 0.00000E+00
 -1       861 3.48113E+01 6.00226E+00 0.00000E+00
 -1       862 3.47235E+01 6.28908E+00 0.00000E+00
 -1       863 4.40481E+00 2.11624E+00 0.00000E+00
 -1       864 3.79925E+00 2.09245E+00 0.00000E+00
 -1       865 3.43304E+00 1.34781E+00 0.00000E+00
 -1       866 4.11905E+00 2.75745E+00 0.00000E+00
 -1       867 3.62762E+00 2.86251E+00 0.00000E+00
 -1       868 3.30782E+00 2.19751E+00 0.00000E+00
 -1       869 2.90657E+00 2.46251E+00 0.00000E+00
 -1       870 2.92543E+00 1.46037E+00 0.00000E+00
 -1       871 2.85859E+01 8.37181E+00 0.00000E+00
 -1       872 2.98557E+01 8.80535E+00 0.00000E+00
 -1       873 2.87570E+01 7.60712E+00 0.00000E+00
 -1       874 3.02878E+01 7.86220E+00 0.00000E+00
 -1       875 3.48233E+01 5.08978E+00 0.00000E+00
 -1       876 3.45947E+01 4.55239E+00 0.00000E+00
 -1       877 3.45826E+01 5.33945E+00 0.00000E+00
 -1       878 3.43727E+01 4.86263E+00 0.00000E+00
 -1       879 3.17592E+01 4.54152E+00 0.00000E+00
 -1       880 3.11896E+01 5.24772E+00 0.00000E+00
 -1       881 3.25688E+01 4.87257E+00 0.00000E+00
 -1       882 3.29461E+01 5.49440E+00 0.00000E+00
 -1       883 3.22792E+01 5.30894E+00 0.00000E+00
 -1       884 3.22095E+01 5.96302E+00 0.00000E+00
 -1       885 7.78218E-01 3.30205E+01 0.00000E+00
 -1       886 7.19787E-01 3.31694E+01 0.00000E+00
 -1       887 6.20551E-01 3.31158E+01 0.00000E+00
 -1       888 6.78983E-01 3.29669E+01 0.00000E+00
 -1       889 8.19352E-01 3.32085E+01 0.00000E+00
 -1       890 6.88154E-01 3.33108E+01 0.00000E+00
 -1       891 5.71020E-01 3.32448E+01 0.00000E+00
 -1       892 5.10053E-01 3.30420E+01 0.00000E+00
 -1       893 2.26331E+01 6.66832E+00 0.00000E+00
 -1       894 2.23934E+01 7.30687E+00 0.00000E+00
 -1       895 2.17560E+01 6.96557E+00 0.00000E+00
 -1       896 2.32995E+01 7.35522E+00 0.00000E+00
 -1       897 2.23698E+01 8.04650E+00 0.00000E+00
 -1       898 2.12951E+01 7.77533E+00 0.00000E+00
 -1       899 4.00311E+00 1.09465E+01 0.00000E+00
 -1       900 5.92500E+00 1.05569E+01 0.00000E+00
 -1       901 3.81838E+00 9.36143E+00 0.00000E+00
 -1       902 5.68130E+00 9.29720E+00 0.00000E+00
 -1       903 7.87837E-01 2.21651E+00 0.00000E+00
 -1       904 9.42765E-01 1.36428E+00 0.00000E+00
 -1       905 3.28045E-01 1.90213E+00 0.00000E+00
 -1       906 6.32845E-01 7.97477E-01 0.00000E+00
 -1       907 7.58308E+00 2.08396E+01 0.00000E+00
 -1       908 7.73359E+00 1.98123E+01 0.00000E+00
 -1       909 6.50123E+00 2.19065E+01 0.00000E+00
 -1       910 6.75344E+00 2.09956E+01 0.00000E+00
 -1       911 5.91221E+00 2.13779E+01 0.00000E+00
 -1       912 6.76996E+00 2.00667E+01 0.00000E+00
 -1       913 1.76782E+00 2.89746E+01 0.00000E+00
 -1       914 1.94439E+00 2.93826E+01 0.00000E+00
 -1       915 2.18754E+00 2.90112E+01 0.00000E+00
 -1       916 9.62430E-01 3.31001E+01 0.00000E+00
 -1       917 9.53787E-01 3.29378E+01 0.00000E+00
 -1       918 8.53012E-01 3.30997E+01 0.00000E+00
 -1       919 4.61082E+00 5.35084E+00 0.00000E+00
 -1       920 4.06342E+00 5.92198E+00 0.00000E+00
 -1       921 4.99105E+00 6.12826E+00 0.00000E+00
 -1       922 3.43370E+01 7.15910E+00 0.00000E+00
 -1       923 3.47961E+01 7.17101E+00 0.00000E+00
 -1       924 3.44676E+01 6.64070E+00 0.00000E+00
 -1       925 5.32678E+00 1.43583E+01 0.00000E+00
 -1       926 6.20985E+00 1.47989E+01 0.00000E+00
 -1       927 6.35164E+00 1.38379E+01 0.00000E+00
 -1       928 5.72470E-01 3.29467E+01 0.00000E+00
 -1       929 6.18625E-01 3.28064E+01 0.00000E+00
 -1       930 4.95958E-01 3.28597E+01 0.00000E+00
 -1       931 2.08832E+00 2.14848E+01 0.00000E+00
 -1       932 1.86934E+00 2.23979E+01 0.00000E+00
 -1       933 2.71079E+00 2.20444E+01 0.00000E+00
 -1       934 3.48011E+00 3.03294E+01 0.00000E+00
 -1       935 3.30009E+00 2.99402E+01 0.00000E+00
 -1       936 3.04924E+00 3.03251E+01 0.00000E+00
 -1       937 1.08736E+01 9.81551E+00 0.00000E+00
 -1       938 1.02718E+01 1.05361E+01 0.00000E+00
 -1       939 1.13086E+01 1.05799E+01 0.00000E+00
 -1       940 1.43989E+01 8.34272E+00 0.00000E+00
 -1       941 1.43303E+01 7.41528E+00 0.00000E+00
 -1       942 1.34538E+01 8.00136E+00 0.00000E+00
 -1       943 5.08271E+00 3.18039E+00 0.00000E+00
 -1       944 5.32821E+00 2.81410E+00 0.00000E+00
 -1       945 4.62761E+00 2.64434E+00 0.00000E+00
 -1       946 3.20398E+00 2.90925E+00 0.00000E+00
 -1       947 2.90454E+00 3.25077E+00 0.00000E+00
 -1       948 3.40122E+00 3.46165E+00 0.00000E+00
 -1       949 5.90226E+00 2.26945E+01 0.00000E+00
 -1       950 6.05336E+00 2.19682E+01 0.00000E+00
 -1       951 5.22262E+00 2.25858E+01 0.00000E+00
 -1       952 3.28297E+01 5.79754E+00 0.00000E+00
 -1       953 3.30037E+01 6.25518E+00 0.00000E+00
 -1       954 3.32847E+01 5.89360E+00 0.00000E+00
 -1       955 2.85090E-02 3.29658E+01 0.00000E+00
 -1       956 5.95350E-02 3.30642E+01 0.00000E+00
 -1       957 3.10260E-02 3.31568E+01 0.00000E+00
 -1       958 8.70230E-02 3.29535E+01 0.00000E+00
 -1       959 1.03312E-01 3.31198E+01 0.00000E+00
 -1       960 9.10870E-02 3.32824E+01 0.00000E+00
 -1       961 6.02480E-02 3.31995E+01 0.00000E+00
 -1       962 2.92220E-02 3.33090E+01 0.00000E+00
 -3
    3C                           287                                     1
 -1         1   10    0CONCR
 -2        59       286       289        58       438       439       440        62
 -1         2   10    0CONCR
 -2       286       220       287       289       441       442       443       439
 -1         3   10    0CONCR
 -2       289       287       219       288       443       444       445       446
 -1         4   10    0CONCR
 -2        58       289       288         4       440       446       447        61
 -1         5   10    0CONCR
 -2       201       290       293       292       448       449       450       451
 -1         6   10    0CONCR
 -2       290        81        82       293       452       101       453       449
 -1         7   10    0CONCR
 -2       293        82        83       291       453       102       454       455
 -1         8   10    0CONCR
 -2       292       293       291       231       450       455       456       457
 -1         9   10    0CONCR
 -2       206       294       297       296       458       459       460       461
 -1        10   10    0CONCR
 -2       294        77        78       297       462        97       463       459
 -1        11   10    0CONCR
 -2       297        78        79       295       463        98       464       465
 -1        12   10    0CONCR
 -2       296       297       295       233       460       465       466       467
 -1        13   10    0CONCR
 -2        85        86       301       300       105       468       469       470
 -1        14   10    0CONCR
 -2        86        87       298       301       106       471       472       468
 -1        15   10    0CONCR
 -2       301       298       236       299       472       473       474       475
 -1        16   10    0CONCR
 -2       300       301       299       200       469       475       476       477
 -1        17   10    0CONCR
 -2       230       302       304       272       478       479       480       481
 -1        18   10    0CONCR
 -2       302        30        31       304       482        46       483       479
 -1        19   10    0CONCR
 -2       304        31        32       303       483        47       484       485
 -1        20   10    0CONCR
 -2       272       304       303       211       480       485       486       487
 -1        21   10    0CONCR
 -2        32        33       307       303        48       488       489       484
 -1        22   10    0CONCR
 -2        33        34       305       307        49       490       491       488
 -1        23   10    0CONCR
 -2       307       305       238       306       491       492       493       494
 -1        24   10    0CONCR
 -2       303       307       306       211       489       494       495       486
 -1        25   10    0CONCR
 -2        34        35       309       305        50       496       497       490
 -1        26   10    0CONCR
 -2        35        36       261       309        51       498       499       496
 -1        27   10    0CONCR
 -2       309       261       243       308       499       500       501       502
 -1        28   10    0CONCR
 -2       305       309       308       238       497       502       503       492
 -1        29   10    0CONCR
 -2        83        84       311       291       103       504       505       454
 -1        30   10    0CONCR
 -2        84        85       300       311       104       470       506       504
 -1        31   10    0CONCR
 -2       311       300       200       310       506       477       507       508
 -1        32   10    0CONCR
 -2       291       311       310       231       505       508       509       456
 -1        33   10    0CONCR
 -2        79        80       313       295        99       510       511       464
 -1        34   10    0CONCR
 -2        80        81       290       313       100       452       512       510
 -1        35   10    0CONCR
 -2       313       290       201       312       512       448       513       514
 -1        36   10    0CONCR
 -2       295       313       312       233       511       514       515       466
 -1        37   10    0CONCR
 -2        87        88       316       298       107       516       517       471
 -1        38   10    0CONCR
 -2        88        89       314       316       108       518       519       516
 -1        39   10    0CONCR
 -2       316       314       218       315       519       520       521       522
 -1        40   10    0CONCR
 -2       298       316       315       236       517       522       523       473
 -1        41   10    0CONCR
 -2       242       317       319       268       524       525       526       527
 -1        42   10    0CONCR
 -2       317       231       310       319       528       509       529       525
 -1        43   10    0CONCR
 -2       319       310       200       318       529       507       530       531
 -1        44   10    0CONCR
 -2       268       319       318       244       526       531       532       533
 -1        45   10    0CONCR
 -2       237       320       323       322       534       535       536       537
 -1        46   10    0CONCR
 -2       320        38        39       323       538        54       539       535
 -1        47   10    0CONCR
 -2       323        39        40       321       539        55       540       541
 -1        48   10    0CONCR
 -2       322       323       321       216       536       541       542       543
 -1        49   10    0CONCR
 -2       211       324       325       270       544       545       546       547
 -1        50   10    0CONCR
 -2       324       201       292       325       548       451       549       545
 -1        51   10    0CONCR
 -2       325       292       231       317       549       457       528       550
 -1        52   10    0CONCR
 -2       270       325       317       242       546       550       524       551
 -1        53   10    0CONCR
 -2       235       326       328       256       552       553       554       555
 -1        54   10    0CONCR
 -2       326       236       315       328       556       523       557       553
 -1        55   10    0CONCR
 -2       328       315       218       327       557       521       558       559
 -1        56   10    0CONCR
 -2       256       328       327       203       554       559       560       561
 -1        57   10    0CONCR
 -2       114       115       332       331       122       562       563       564
 -1        58   10    0CONCR
 -2       115       116       329       332       123       565       566       562
 -1        59   10    0CONCR
 -2       332       329       225       330       566       567       568       569
 -1        60   10    0CONCR
 -2       331       332       330       209       563       569       570       571
 -1        61   10    0CONCR
 -2       212       333       336       335       572       573       574       575
 -1        62   10    0CONCR
 -2       333       223       334       336       576       577       578       573
 -1        63   10    0CONCR
 -2       336       334        14        15       578       579        18       580
 -1        64   10    0CONCR
 -2       335       336        15         2       574       580        19       581
 -1        65   10    0CONCR
 -2       210       247       340       339       582       583       584       585
 -1        66   10    0CONCR
 -2       247       214       337       340       586       587       588       583
 -1        67   10    0CONCR
 -2       340       337       202       338       588       589       590       591
 -1        68   10    0CONCR
 -2       339       340       338       221       584       591       592       593
 -1        69   10    0CONCR
 -2       171       341       343       170       594       595       596       194
 -1        70   10    0CONCR
 -2       341       232       254       343       597       598       599       595
 -1        71   10    0CONCR
 -2       343       254       203       342       599       600       601       602
 -1        72   10    0CONCR
 -2       170       343       342       169       596       602       603       193
 -1        73   10    0CONCR
 -2       200       299       345       318       476       604       605       530
 -1        74   10    0CONCR
 -2       299       236       326       345       474       556       606       604
 -1        75   10    0CONCR
 -2       345       326       235       344       606       552       607       608
 -1        76   10    0CONCR
 -2       318       345       344       244       605       608       609       532
 -1        77   10    0CONCR
 -2       171       172       348       347       195       610       611       612
 -1        78   10    0CONCR
 -2       172       173       346       348       196       613       614       610
 -1        79   10    0CONCR
 -2       348       346       215       251       614       615       616       617
 -1        80   10    0CONCR
 -2       347       348       251       240       611       617       618       619
 -1        81   10    0CONCR
 -2       112       113       350       278       120       620       621       622
 -1        82   10    0CONCR
 -2       113       114       331       350       121       564       623       620
 -1        83   10    0CONCR
 -2       350       331       209       349       623       571       624       625
 -1        84   10    0CONCR
 -2       278       350       349       239       621       625       626       627
 -1        85   10    0CONCR
 -2        38       320       352        37       538       628       629        53
 -1        86   10    0CONCR
 -2       320       237       351       352       534       630       631       628
 -1        87   10    0CONCR
 -2       352       351       206       261       631       632       633       634
 -1        88   10    0CONCR
 -2        37       352       261        36       629       634       498        52
 -1        89   10    0CONCR
 -2        28        29       355       354        44       635       636       637
 -1        90   10    0CONCR
 -2        29        30       302       355        45       482       638       635
 -1        91   10    0CONCR
 -2       355       302       230       353       638       478       639       640
 -1        92   10    0CONCR
 -2       354       355       353       199       636       640       641       642
 -1        93   10    0CONCR
 -2       116       117       356       329       124       643       644       565
 -1        94   10    0CONCR
 -2       117        10       266       356       125       645       646       643
 -1        95   10    0CONCR
 -2       356       266       214       246       646       647       648       649
 -1        96   10    0CONCR
 -2       329       356       246       225       644       649       650       567
 -1        97   10    0CONCR
 -2       221       338       360       359       592       651       652       653
 -1        98   10    0CONCR
 -2       338       202       357       360       590       654       655       651
 -1        99   10    0CONCR
 -2       360       357       224       358       655       656       657       658
 -1       100   10    0CONCR
 -2       359       360       358       213       652       658       659       660
 -1       101   10    0CONCR
 -2       237       361       362       351       661       662       663       630
 -1       102   10    0CONCR
 -2       361        75        76       362       664        95       665       662
 -1       103   10    0CONCR
 -2       362        76        77       294       665        96       462       666
 -1       104   10    0CONCR
 -2       351       362       294       206       663       666       458       632
 -1       105   10    0CONCR
 -2       234       363       366       250       667       668       669       670
 -1       106   10    0CONCR
 -2       363       199       364       366       671       672       673       668
 -1       107   10    0CONCR
 -2       366       364       241       365       673       674       675       676
 -1       108   10    0CONCR
 -2       250       366       365       240       669       676       677       678
 -1       109   10    0CONCR
 -2       205       259       204       368       679       680       681       682
 -1       110   10    0CONCR
 -2       259       222       367       204       683       684       685       680
 -1       111   10    0CONCR
 -2       239       349       370       264       626       686       687       688
 -1       112   10    0CONCR
 -2       349       209       369       370       624       689       690       686
 -1       113   10    0CONCR
 -2       370       369       165       166       690       691       189       692
 -1       114   10    0CONCR
 -2       264       370       166       167       687       692       190       693
 -1       115   10    0CONCR
 -2       234       249       372       371       694       695       696       697
 -1       116   10    0CONCR
 -2       249       215       276       372       698       699       700       695
 -1       117   10    0CONCR
 -2       372       276       217       273       700       701       702       703
 -1       118   10    0CONCR
 -2       371       372       273         3       696       703       704       705
 -1       119   10    0CONCR
 -2       199       363       373       354       671       706       707       642
 -1       120   10    0CONCR
 -2       363       234       371       373       667       697       708       706
 -1       121   10    0CONCR
 -2       373       371         3        27       708       705        42       709
 -1       122   10    0CONCR
 -2       354       373        27        28       707       709        43       637
 -1       123   10    0CONCR
 -2       212       277       375       333       710       711       712       572
 -1       124   10    0CONCR
 -2       277       215       346       375       713       615       714       711
 -1       125   10    0CONCR
 -2       375       346       173       374       714       613       715       716
 -1       126   10    0CONCR
 -2       333       375       374       223       712       716       717       576
 -1       127   10    0CONCR
 -2       278       239       263       377       627       718       719       720
 -1       128   10    0CONCR
 -2       377       263       227       376       719       721       722       723
 -1       129   10    0CONCR
 -2       278       377       376       207       720       723       724       725
 -1       130   10    0CONCR
 -2       230       271       378       353       726       727       728       639
 -1       131   10    0CONCR
 -2       271       242       267       378       729       730       731       727
 -1       132   10    0CONCR
 -2       378       267       241       364       731       732       674       733
 -1       133   10    0CONCR
 -2       353       378       364       199       728       733       672       641
 -1       134   10    0CONCR
 -2       165       369       380       164       691       734       735       188
 -1       135   10    0CONCR
 -2       369       209       330       380       689       570       736       734
 -1       136   10    0CONCR
 -2       380       330       225       379       736       568       737       738
 -1       137   10    0CONCR
 -2       164       380       379       163       735       738       739       187
 -1       138   10    0CONCR
 -2       204       381       383       368       740       741       742       681
 -1       139   10    0CONCR
 -2       381       224       382       383       743       744       745       741
 -1       140   10    0CONCR
 -2       383       382       131       132       745       746       143       747
 -1       141   10    0CONCR
 -2       368       383       132       133       742       747       144       748
 -1       142   10    0CONCR
 -2       224       357       385       382       656       749       750       744
 -1       143   10    0CONCR
 -2       357       202       384       385       654       751       752       749
 -1       144   10    0CONCR
 -2       385       384       129       130       752       753       141       754
 -1       145   10    0CONCR
 -2       382       385       130       131       750       754       142       746
 -1       146   10    0CONCR
 -2       227       262       387       386       755       756       757       758
 -1       147   10    0CONCR
 -2       262       167       168       387       759       191       760       756
 -1       148   10    0CONCR
 -2       387       168       169       342       760       192       603       761
 -1       149   10    0CONCR
 -2       386       387       342       203       757       761       601       762
 -1       150   10    0CONCR
 -2       228       388       390       258       763       764       765       766
 -1       151   10    0CONCR
 -2       388       229       283       390       767       768       769       764
 -1       152   10    0CONCR
 -2       390       283       155       389       769       770       771       772
 -1       153   10    0CONCR
 -2       258       390       389       222       765       772       773       774
 -1       154   10    0CONCR
 -2       157       391       393       156       775       776       777       180
 -1       155   10    0CONCR
 -2       391       213       392       393       778       779       780       776
 -1       156   10    0CONCR
 -2       393       392       222       389       780       781       773       782
 -1       157   10    0CONCR
 -2       156       393       389       155       777       782       771       179
 -1       158   10    0CONCR
 -2        11       149       395       394       150       783       784       785
 -1       159   10    0CONCR
 -2       149        12       285       395       151       786       787       783
 -1       160   10    0CONCR
 -2       395       285       229       388       787       788       767       789
 -1       161   10    0CONCR
 -2       394       395       388       228       784       789       763       790
 -1       162   10    0CONCR
 -2       161       396       398       160       791       792       793       184
 -1       163   10    0CONCR
 -2       396       210       339       398       794       585       795       792
 -1       164   10    0CONCR
 -2       398       339       221       397       795       593       796       797
 -1       165   10    0CONCR
 -2       160       398       397       159       793       797       798       183
 -1       166   10    0CONCR
 -2       159       397       399       158       798       799       800       182
 -1       167   10    0CONCR
 -2       397       221       359       399       796       653       801       799
 -1       168   10    0CONCR
 -2       399       359       213       391       801       660       778       802
 -1       169   10    0CONCR
 -2       158       399       391       157       800       802       775       181
 -1       170   10    0CONCR
 -2       163       379       400       162       739       803       804       186
 -1       171   10    0CONCR
 -2       379       225       245       400       737       805       806       803
 -1       172   10    0CONCR
 -2       400       245       210       396       806       807       794       808
 -1       173   10    0CONCR
 -2       162       400       396       161       804       808       791       185
 -1       174   10    0CONCR
 -2         6        72       402       252        91       809       810       811
 -1       175   10    0CONCR
 -2        72        73       401       402        92       812       813       809
 -1       176   10    0CONCR
 -2       402       401       208       282       813       814       815       816
 -1       177   10    0CONCR
 -2       252       402       282       226       810       816       817       818
 -1       178   10    0CONCR
 -2       127       128       403       265       139       819       820       821
 -1       179   10    0CONCR
 -2       128       129       384       403       140       753       822       819
 -1       180   10    0CONCR
 -2       403       384       202       337       822       751       589       823
 -1       181   10    0CONCR
 -2       265       403       337       214       820       823       587       824
 -1       182   10    0CONCR
 -2       213       358       404       392       659       825       826       779
 -1       183   10    0CONCR
 -2       358       224       381       404       657       743       827       825
 -1       184   10    0CONCR
 -2       404       381       204       367       827       740       685       828
 -1       185   10    0CONCR
 -2       392       404       367       222       826       828       684       781
 -1       186   10    0CONCR
 -2       241       269       406       405       829       830       831       832
 -1       187   10    0CONCR
 -2       269       244       344       406       833       609       834       830
 -1       188   10    0CONCR
 -2       406       344       235       255       834       607       835       836
 -1       189   10    0CONCR
 -2       405       406       255       232       831       836       837       838
 -1       190   10    0CONCR
 -2       203       327       408       386       560       839       840       762
 -1       191   10    0CONCR
 -2       327       218       407       408       558       841       842       839
 -1       192   10    0CONCR
 -2       408       407       207       376       842       843       724       844
 -1       193   10    0CONCR
 -2       386       408       376       227       840       844       722       758
 -1       194   10    0CONCR
 -2       208       401       216       321       814       845       542       846
 -1       195   10    0CONCR
 -2       238       409       410       306       847       848       849       493
 -1       196   10    0CONCR
 -2       409       233       312       410       850       515       851       848
 -1       197   10    0CONCR
 -2       410       312       201       324       851       513       548       852
 -1       198   10    0CONCR
 -2       306       410       324       211       849       852       544       495
 -1       199   10    0CONCR
 -2       226       281       412       253       853       854       855       856
 -1       200   10    0CONCR
 -2       281       219       287       412       857       444       858       854
 -1       201   10    0CONCR
 -2       412       287       220       411       858       442       859       860
 -1       202   10    0CONCR
 -2       253       412       411        66       855       860       861       862
 -1       203   10    0CONCR
 -2        21       274       413        20       863       864       865        24
 -1       204   10    0CONCR
 -2       274       217       275       413       866       867       868       864
 -1       205   10    0CONCR
 -2       413       275       212       335       868       869       575       870
 -1       206   10    0CONCR
 -2        20       413       335         2       865       870       581        23
 -1       207   10    0CONCR
 -2        75       361       414        74       664       871       872        94
 -1       208   10    0CONCR
 -2       361       237       322       414       661       537       873       871
 -1       209   10    0CONCR
 -2       414       322       216       401       873       543       845       874
 -1       210   10    0CONCR
 -2        74       414       401        73       872       874       812        93
 -1       211   10    0CONCR
 -2         5        65       415        60        68       875       876        64
 -1       212   10    0CONCR
 -2        65        66       411       415        69       861       877       875
 -1       213   10    0CONCR
 -2       415       411       220       286       877       859       441       878
 -1       214   10    0CONCR
 -2        60       415       286        59       876       878       438        63
 -1       215   10    0CONCR
 -2        40        41       416       321        56       879       880       540
 -1       216   10    0CONCR
 -2        41         4       288       416        57       447       881       879
 -1       217   10    0CONCR
 -2       416       288       219       280       881       445       882       883
 -1       218   10    0CONCR
 -2       321       416       280       208       880       883       884       846
 -1       219   10    0CONCR
 -2       205       248       417       257       885       886       887       888
 -1       220   10    0CONCR
 -2       248       135       136       417       889       147       890       886
 -1       221   10    0CONCR
 -2       417       136        11       394       890       148       785       891
 -1       222   10    0CONCR
 -2       257       417       394       228       887       891       790       892
 -1       223   10    0CONCR
 -2       243       260       418       308       893       894       895       501
 -1       224   10    0CONCR
 -2       260       206       296       418       896       461       897       894
 -1       225   10    0CONCR
 -2       418       296       233       409       897       467       850       898
 -1       226   10    0CONCR
 -2       308       418       409       238       895       898       847       503
 -1       227   10    0CONCR
 -2       232       341       419       405       597       899       900       838
 -1       228   10    0CONCR
 -2       341       171       347       419       594       612       901       899
 -1       229   10    0CONCR
 -2       419       347       240       365       901       619       677       902
 -1       230   10    0CONCR
 -2       405       419       365       241       900       902       675       832
 -1       231   10    0CONCR
 -2       223       374       420       334       717       903       904       577
 -1       232   10    0CONCR
 -2       374       173       174       420       715       197       905       903
 -1       233   10    0CONCR
 -2       420       174         1        13       905       198        16       906
 -1       234   10    0CONCR
 -2       334       420        13        14       904       906        17       579
 -1       235   10    0CONCR
 -2        89        90       421       314       109       907       908       518
 -1       236   10    0CONCR
 -2        90         8       279       421       110       909       910       907
 -1       237   10    0CONCR
 -2       421       279       207       407       910       911       843       912
 -1       238   10    0CONCR
 -2       314       421       407       218       908       912       841       520
 -1       239   10    0CONCR
 -2       210       245       422       247       807       913       914       582
 -1       240   10    0CONCR
 -2       245       225       246       422       805       650       915       913
 -1       241   10    0CONCR
 -2       247       422       246       214       914       915       648       586
 -1       242   10    0CONCR
 -2       133       134       423       368       145       916       917       748
 -1       243   10    0CONCR
 -2       134       135       248       423       146       889       918       916
 -1       244   10    0CONCR
 -2       368       423       248       205       917       918       885       682
 -1       245   10    0CONCR
 -2       215       249       424       251       698       919       920       616
 -1       246   10    0CONCR
 -2       249       234       250       424       694       670       921       919
 -1       247   10    0CONCR
 -2       251       424       250       240       920       921       678       618
 -1       248   10    0CONCR
 -2         6       252       425        67       811       922       923        71
 -1       249   10    0CONCR
 -2       252       226       253       425       818       856       924       922
 -1       250   10    0CONCR
 -2        67       425       253        66       923       924       862        70
 -1       251   10    0CONCR
 -2       203       254       426       256       600       925       926       561
 -1       252   10    0CONCR
 -2       254       232       255       426       598       837       927       925
 -1       253   10    0CONCR
 -2       256       426       255       235       926       927       835       555
 -1       254   10    0CONCR
 -2       205       257       427       259       888       928       929       679
 -1       255   10    0CONCR
 -2       257       228       258       427       892       766       930       928
 -1       256   10    0CONCR
 -2       259       427       258       222       929       930       774       683
 -1       257   10    0CONCR
 -2       261       206       260       243       633       896       893       500
 -1       258   10    0CONCR
 -2       167       262       428       264       759       931       932       693
 -1       259   10    0CONCR
 -2       262       227       263       428       755       721       933       931
 -1       260   10    0CONCR
 -2       264       428       263       239       932       933       718       688
 -1       261   10    0CONCR
 -2        10       126       429       266       137       934       935       645
 -1       262   10    0CONCR
 -2       126       127       265       429       138       821       936       934
 -1       263   10    0CONCR
 -2       266       429       265       214       935       936       824       647
 -1       264   10    0CONCR
 -2       241       267       430       269       732       937       938       829
 -1       265   10    0CONCR
 -2       267       242       268       430       730       527       939       937
 -1       266   10    0CONCR
 -2       269       430       268       244       938       939       533       833
 -1       267   10    0CONCR
 -2       211       270       431       272       547       940       941       487
 -1       268   10    0CONCR
 -2       270       242       271       431       551       729       942       940
 -1       269   10    0CONCR
 -2       272       431       271       230       941       942       726       481
 -1       270   10    0CONCR
 -2         3       273       432        22       704       943       944        26
 -1       271   10    0CONCR
 -2       273       217       274       432       702       866       945       943
 -1       272   10    0CONCR
 -2        22       432       274        21       944       945       863        25
 -1       273   10    0CONCR
 -2       212       275       433       277       869       946       947       710
 -1       274   10    0CONCR
 -2       275       217       276       433       867       701       948       946
 -1       275   10    0CONCR
 -2       277       433       276       215       947       948       699       713
 -1       276   10    0CONCR
 -2         8       111       434       279       118       949       950       909
 -1       277   10    0CONCR
 -2       111       112       278       434       119       622       951       949
 -1       278   10    0CONCR
 -2       279       434       278       207       950       951       725       911
 -1       279   10    0CONCR
 -2       208       280       435       282       884       952       953       815
 -1       280   10    0CONCR
 -2       280       219       281       435       882       857       954       952
 -1       281   10    0CONCR
 -2       282       435       281       226       953       954       853       817
 -1       282   10    0CONCR
 -2       153       154       436       284       177       955       956       957
 -1       283   10    0CONCR
 -2       154       155       283       436       178       770       958       955
 -1       284   10    0CONCR
 -2       284       436       283       229       956       958       768       959
 -1       285   10    0CONCR
 -2       229       285       437       284       788       960       961       959
 -1       286   10    0CONCR
 -2       285        12       152       437       786       175       962       960
 -1       287   10    0CONCR
 -2       284       437       152       153       961       962       176       957
 -3
    1PSTEP                         1           1           1          
  100CL  101 1.000000000         960                     0    1           1
 -4  DISPR       4    1
 -5  D1          1    2    1    0
 -5  D2          1    2    2    0
 -5  D3          1    2    3    0
 -5  ALL         1    2    0    0    1ALL
 -1         1 0.00000E+00 0.00000E+00 0.00000E+00
 -1         2 1.19641E-05 8.09896E-05 0.00000E+00
 -1         3-3.65704E-05 1.41449E-04 0.00000E+00
 -1         4-2.09639E-04 7.44865E-04 0.00000E+00
 -1         5-2.15914E-04 7.82599E-04 0.00000E+00
 -1         6-3.03163E-04 7.72047E-04 0.00000E+00
 -1         8-8.88677E-05 6.50550E-05 0.00000E+00
 -1        10-1.77749E-05 3.41280E-06 0.00000E+00
 -1        11-9.95102E-07-2.61593E-06 0.00000E+00
 -1        12 0.00000E+00 0.00000E+00 0.00000E+00
 -1        13 1.43340E-05 2.81612E-05 0.00000E+00
 -1        14 1.82416E-05 4.88968E-05 0.00000E+00
 -1        15 1.65907E-05 6.67313E-05 0.00000E+00
 -1        16 7.24072E-06 1.42941E-05 0.00000E+00
 -1        17 1.70190E-05 3.91709E-05 0.00000E+00
 -1        18 1.78484E-05 5.82806E-05 0.00000E+00
 -1        19 1.45706E-05 7.43550E-05 0.00000E+00
 -1        20-7.67316E-06 9.30474E-05 0.00000E+00
 -1        21-1.96494E-05 1.06803E-04 0.00000E+00
 -1        22-2.98864E-05 1.22082E-04 0.00000E+00
 -1        23 6.78763E-07 8.70425E-05 0.00000E+00
 -1        24-1.39766E-05 9.96409E-05 0.00000E+00
 -1        25-2.49757E-05 1.14317E-04 0.00000E+00
 -1        26-3.38764E-05 1.31201E-04 0.00000E+00
 -1        27-3.79580E-05 1.84005E-04 0.00000E+00
 -1        28-4.75115E-05 2.21578E-04 0.00000E+00
 -1        29-5.80616E-05 2.57490E-04 0.00000E+00
 -1        30-6.90981E-05 2.93331E-04 0.00000E+00
 -1        31-8.02950E-05 3.29792E-04 0.00000E+00
 -1        32-9.16818E-05 3.67238E-04 0.00000E+00
 -1        33-1.03371E-04 4.05742E-04 0.00000E+00
 -1        34-1.15481E-04 4.45151E-04 0.00000E+00
 -1        35-1.28069E-04 4.85119E-04 0.00000E+00
 -1        36-1.41094E-04 5.25161E-04 0.00000E+00
 -1        37-1.54365E-04 5.64742E-04 0.00000E+00
 -1        38-1.67551E-04 6.03359E-04 0.00000E+00
 -1        39-1.80209E-04 6.40636E-04 0.00000E+00
 -1        40-1.91806E-04 6.76417E-04 0.00000E+00
 -1        41-2.01766E-04 7.10904E-04 0.00000E+00
 -1        42-3.54525E-05 1.63677E-04 0.00000E+00
 -1        43-4.23878E-05 2.03262E-04 0.00000E+00
 -1        44-5.26840E-05 2.39592E-04 0.00000E+00
 -1        45-6.35417E-05 2.75372E-04 0.00000E+00
 -1        46-7.46731E-05 3.11453E-04 0.00000E+00
 -1        47-8.59556E-05 3.48381E-04 0.00000E+00
 -1        48-9.74805E-05 3.86361E-04 0.00000E+00
 -1        49-1.09369E-04 4.25351E-04 0.00000E+00
 -1        50-1.21719E-04 4.65091E-04 0.00000E+00
 -1        51-1.34545E-04 5.05162E-04 0.00000E+00
 -1        52-1.47720E-04 5.45045E-04 0.00000E+00
 -1        53-1.60994E-04 5.84200E-04 0.00000E+00
 -1        54-1.73979E-04 6.22183E-04 0.00000E+00
 -1        55-1.86175E-04 6.58711E-04 0.00000E+00
 -1        56-1.97010E-04 6.93793E-04 0.00000E+00
 -1        57-2.05964E-04 7.27848E-04 0.00000E+00
 -1        58-2.11434E-04 7.54199E-04 0.00000E+00
 -1        59-2.13067E-04 7.63642E-04 0.00000E+00
 -1        60-2.14562E-04 7.73116E-04 0.00000E+00
 -1        61-2.10557E-04 7.49508E-04 0.00000E+00
 -1        62-2.12269E-04 7.58914E-04 0.00000E+00
 -1        63-2.13832E-04 7.68377E-04 0.00000E+00
 -1        64-2.15256E-04 7.77859E-04 0.00000E+00
 -1        65-2.37997E-04 7.80012E-04 0.00000E+00
 -1        66-2.59949E-04 7.77397E-04 0.00000E+00
 -1        67-2.81703E-04 7.74710E-04 0.00000E+00
 -1        68-2.26975E-04 7.81305E-04 0.00000E+00
 -1        69-2.48989E-04 7.78712E-04 0.00000E+00
 -1        70-2.70857E-04 7.76060E-04 0.00000E+00
 -1        71-2.92463E-04 7.73366E-04 0.00000E+00
 -1        72-3.04315E-04 7.39777E-04 0.00000E+00
 -1        73-3.05008E-04 7.07219E-04 0.00000E+00
 -1        74-3.05565E-04 6.73884E-04 0.00000E+00
 -1        75-3.05965E-04 6.39244E-04 0.00000E+00
 -1        76-3.05984E-04 6.03043E-04 0.00000E+00
 -1        77-3.05289E-04 5.65260E-04 0.00000E+00
 -1        78-3.03524E-04 5.26073E-04 0.00000E+00
 -1        79-3.00338E-04 4.85751E-04 0.00000E+00
 -1        80-2.95404E-04 4.44631E-04 0.00000E+00
 -1        81-2.88401E-04 4.03062E-04 0.00000E+00
 -1        82-2.79017E-04 3.61432E-04 0.00000E+00
 -1        83-2.66964E-04 3.20186E-04 0.00000E+00
 -1        84-2.52027E-04 2.79849E-04 0.00000E+00
 -1        85-2.34130E-04 2.41015E-04 0.00000E+00
 -1        86-2.13403E-04 2.04301E-04 0.00000E+00
 -1        87-1.90224E-04 1.70266E-04 0.00000E+00
 -1        88-1.65227E-04 1.39323E-04 0.00000E+00
 -1        89-1.39206E-04 1.11686E-04 0.00000E+00
 -1        90-1.13293E-04 8.73653E-05 0.00000E+00
 -1        91-3.03823E-04 7.55930E-04 0.00000E+00
 -1        92-3.04693E-04 7.23563E-04 0.00000E+00
 -1        93-3.05299E-04 6.90688E-04 0.00000E+00
 -1        94-3.05798E-04 6.56750E-04 0.00000E+00
 -1        95-3.06043E-04 6.21348E-04 0.00000E+00
 -1        96-3.05748E-04 5.84344E-04 0.00000E+00
 -1        97-3.04558E-04 5.45826E-04 0.00000E+00
 -1        98-3.02127E-04 5.06033E-04 0.00000E+00
 -1        99-2.98109E-04 4.65270E-04 0.00000E+00
 -1       100-2.92180E-04 4.23879E-04 0.00000E+00
 -1       101-2.84024E-04 3.82228E-04 0.00000E+00
 -1       102-2.73337E-04 3.40728E-04 0.00000E+00
 -1       103-2.59862E-04 2.99864E-04 0.00000E+00
 -1       104-2.43444E-04 2.60201E-04 0.00000E+00
 -1       105-2.24102E-04 2.22352E-04 0.00000E+00
 -1       106-2.02088E-04 1.86915E-04 0.00000E+00
 -1       107-1.77907E-04 1.54387E-04 0.00000E+00
 -1       108-1.52291E-04 1.25082E-04 0.00000E+00
 -1       109-1.26168E-04 9.91120E-05 0.00000E+00
 -1       110-1.01329E-04 7.66099E-05 0.00000E+00
 -1       111-7.01852E-05 4.95846E-05 0.00000E+00
 -1       112-5.39583E-05 3.77377E-05 0.00000E+00
 -1       113-4.07516E-05 2.80395E-05 0.00000E+00
 -1       114-3.10009E-05 2.05274E-05 0.00000E+00
 -1       115-2.44971E-05 1.47251E-05 0.00000E+00
 -1       116-2.06390E-05 1.02041E-05 0.00000E+00
 -1       117-1.86355E-05 6.52628E-06 0.00000E+00
 -1       118-7.95095E-05 5.68592E-05 0.00000E+00
 -1       119-6.15989E-05 4.32972E-05 0.00000E+00
 -1       120-4.69141E-05 3.25379E-05 0.00000E+00
 -1       121-3.54339E-05 2.40252E-05 0.00000E+00
 -1       122-2.73629E-05 1.74261E-05 0.00000E+00
 -1       123-2.22717E-05 1.23179E-05 0.00000E+00
 -1       124-1.94532E-05 8.26755E-06 0.00000E+00
 -1       125-1.80653E-05 4.89803E-06 0.00000E+00
 -1       126-1.56009E-05 2.30283E-06 0.00000E+00
 -1       127-1.31064E-05 8.40076E-07 0.00000E+00
 -1       128-1.11157E-05-2.21086E-07 0.00000E+00
 -1       129-9.01850E-06-1.16552E-06 0.00000E+00
 -1       130-7.46165E-06-1.72949E-06 0.00000E+00
 -1       131-5.90899E-06-2.16300E-06 0.00000E+00
 -1       132-4.79937E-06-2.38788E-06 0.00000E+00
 -1       133-3.71609E-06-2.53612E-06 0.00000E+00
 -1       134-2.94218E-06-2.59835E-06 0.00000E+00
 -1       135-2.16909E-06-2.62980E-06 0.00000E+00
 -1       136-1.59100E-06-2.63377E-06 0.00000E+00
 -1       137-1.67160E-05 2.91625E-06 0.00000E+00
 -1       138-1.43909E-05 1.58218E-06 0.00000E+00
 -1       139-1.21283E-05 3.01745E-07 0.00000E+00
 -1       140-1.00778E-05-7.13082E-07 0.00000E+00
 -1       141-8.24178E-06-1.46226E-06 0.00000E+00
 -1       142-6.68325E-06-1.96347E-06 0.00000E+00
 -1       143-5.35154E-06-2.28511E-06 0.00000E+00
 -1       144-4.25428E-06-2.47092E-06 0.00000E+00
 -1       145-3.32658E-06-2.57263E-06 0.00000E+00
 -1       146-2.55666E-06-2.61829E-06 0.00000E+00
 -1       147-1.88299E-06-2.63413E-06 0.00000E+00
 -1       148-1.29667E-06-2.62515E-06 0.00000E+00
 -1       149-1.87184E-07-1.66683E-06 0.00000E+00
 -1       150-5.81733E-07-2.19420E-06 0.00000E+00
 -1       151 4.82422E-08-1.01021E-06 0.00000E+00
 -1       152 0.00000E+00 0.00000E+00 0.00000E+00
 -1       153 0.00000E+00 0.00000E+00 0.00000E+00
 -1       154 0.00000E+00 0.00000E+00 0.00000E+00
 -1       155 0.00000E+00 0.00000E+00 0.00000E+00
 -1       156 0.00000E+00 0.00000E+00 0.00000E+00
 -1       157 0.00000E+00 0.00000E+00 0.00000E+00
 -1       158 0.00000E+00 0.00000E+00 0.00000E+00
 -1       159 0.00000E+00 0.00000E+00 0.00000E+00
 -1       160 0.00000E+00 0.00000E+00 0.00000E+00
 -1       161 0.00000E+00 0.00000E+00 0.00000E+00
 -1       162 0.00000E+00 0.00000E+00 0.00000E+00
 -1       163 0.00000E+00 0.00000E+00 0.00000E+00
 -1       164 0.00000E+00 0.00000E+00 0.00000E+00
 -1       165 0.00000E+00 0.00000E+00 0.00000E+00
 -1       166 0.00000E+00 0.00000E+00 0.00000E+00
 -1       167 0.00000E+00 0.00000E+00 0.00000E+00
 -1       168 0.00000E+00 0.00000E+00 0.00000E+00
 -1       169 0.00000E+00 0.00000E+00 0.00000E+00
 -1       170 0.00000E+00 0.00000E+00 0.00000E+00
 -1       171 0.00000E+00 0.00000E+00 0.00000E+00
 -1       172 0.00000E+00 0.00000E+00 0.00000E+00
 -1       173 0.00000E+00 0.00000E+00 0.00000E+00
 -1       174 0.00000E+00 0.00000E+00 0.00000E+00
 -1       175 0.00000E+00 0.00000E+00 0.00000E+00
 -1       176 0.00000E+00 0.00000E+00 0.00000E+00
 -1       177 0.00000E+00 0.00000E+00 0.00000E+00
 -1       178 0.00000E+00 0.00000E+00 0.00000E+00
 -1       179 0.00000E+00 0.00000E+00 0.00000E+00
 -1       180 0.00000E+00 0.00000E+00 0.00000E+00
 -1       181 0.00000E+00 0.00000E+00 0.00000E+00
 -1       182 0.00000E+00 0.00000E+00 0.00000E+00
 -1       183 0.00000E+00 0.00000E+00 0.00000E+00
 -1       184 0.00000E+00 0.00000E+00 0.00000E+00
 -1       185 0.00000E+00 0.00000E+00 0.00000E+00
 -1       186 0.00000E+00 0.00000E+00 0.00000E+00
 -1       187 0.00000E+00 0.00000E+00 0.00000E+00
 -1       188 0.00000E+00 0.00000E+00 0.00000E+00
 -1       189 0.00000E+00 0.00000E+00 0.00000E+00
 -1       190 0.00000E+00 0.00000E+00 0.00000E+00
 -1       191 0.00000E+00 0.00000E+00 0.00000E+00
 -1       192 0.00000E+00 0.00000E+00 0.00000E+00
 -1       193 0.00000E+00 0.00000E+00 0.00000E+00
 -1       194 0.00000E+00 0.00000E+00 0.00000E+00
 -1       195 0.00000E+00 0.00000E+00 0.00000E+00
 -1       196 0.00000E+00 0.00000E+00 0.00000E+00
 -1       197 0.00000E+00 0.00000E+00 0.00000E+00
 -1       198 0.00000E+00 0.00000E+00 0.00000E+00
 -1       199-9.51906E-05 1.90938E-04 0.00000E+00
 -1       200-2.00599E-04 2.12461E-04 0.00000E+00
 -1       201-2.29945E-04 3.66285E-04 0.00000E+00
 -1       202-8.71223E-06 1.14918E-06 0.00000E+00
 -1       203-9.06787E-05 6.63735E-05 0.00000E+00
 -1       204-3.53572E-06-1.17589E-06 0.00000E+00
 -1       205-2.69881E-06-1.60566E-06 0.00000E+00
 -1       206-2.25598E-04 5.24436E-04 0.00000E+00
 -1       207-8.49723E-05 6.00161E-05 0.00000E+00
 -1       208-2.48836E-04 7.10988E-04 0.00000E+00
 -1       209-2.18406E-05 1.81537E-05 0.00000E+00
 -1       210-8.20670E-06 3.65779E-06 0.00000E+00
 -1       211-1.62722E-04 3.33927E-04 0.00000E+00
 -1       212-1.48660E-05 6.20180E-05 0.00000E+00
 -1       213-3.51242E-06 1.47536E-08 0.00000E+00
 -1       214-1.28870E-05 4.28844E-06 0.00000E+00
 -1       215-2.96607E-05 6.27668E-05 0.00000E+00
 -1       216-2.47679E-04 6.70641E-04 0.00000E+00
 -1       217-2.60173E-05 8.68133E-05 0.00000E+00
 -1       218-1.27046E-04 9.63672E-05 0.00000E+00
 -1       219-2.35534E-04 7.43375E-04 0.00000E+00
 -1       220-2.36336E-04 7.61468E-04 0.00000E+00
 -1       221-5.33916E-06 1.14168E-06 0.00000E+00
 -1       222-2.40972E-06-6.90231E-07 0.00000E+00
 -1       223-8.52045E-06 3.36539E-05 0.00000E+00
 -1       224-5.81642E-06-3.91993E-07 0.00000E+00
 -1       225-1.32519E-05 8.70791E-06 0.00000E+00
 -1       226-2.58927E-04 7.50634E-04 0.00000E+00
 -1       227-5.90174E-05 4.18296E-05 0.00000E+00
 -1       228-1.48400E-06-1.10970E-06 0.00000E+00
 -1       229-5.45593E-07-3.79900E-07 0.00000E+00
 -1       230-1.25241E-04 2.67077E-04 0.00000E+00
 -1       231-2.18203E-04 2.82417E-04 0.00000E+00
 -1       232-9.54473E-05 8.10709E-05 0.00000E+00
 -1       233-2.37600E-04 4.53645E-04 0.00000E+00
 -1       234-5.80479E-05 1.15768E-04 0.00000E+00
 -1       235-1.35360E-04 1.17370E-04 0.00000E+00
 -1       236-1.68425E-04 1.46584E-04 0.00000E+00
 -1       237-2.40477E-04 5.98182E-04 0.00000E+00
 -1       238-1.79582E-04 4.32966E-04 0.00000E+00
 -1       239-4.13228E-05 3.14148E-05 0.00000E+00
 -1       240-6.03665E-05 7.76369E-05 0.00000E+00
 -1       241-1.23334E-04 1.55155E-04 0.00000E+00
 -1       242-1.64569E-04 2.42932E-04 0.00000E+00
 -1       243-1.86965E-04 4.96321E-04 0.00000E+00
 -1       244-1.62258E-04 1.81973E-04 0.00000E+00
 -1       245-9.86888E-06 5.53191E-06 0.00000E+00
 -1       246-1.35148E-05 6.76186E-06 0.00000E+00
 -1       247-1.07290E-05 4.27476E-06 0.00000E+00
 -1       248-2.38910E-06-2.11517E-06 0.00000E+00
 -1       249-4.29256E-05 8.93097E-05 0.00000E+00
 -1       250-6.21123E-05 9.77924E-05 0.00000E+00
 -1       251-4.17725E-05 6.29542E-05 0.00000E+00
 -1       252-2.78717E-04 7.56157E-04 0.00000E+00
 -1       253-2.58332E-04 7.63934E-04 0.00000E+00
 -1       254-8.73489E-05 6.70179E-05 0.00000E+00
 -1       255-1.17920E-04 1.02228E-04 0.00000E+00
 -1       256-1.17236E-04 9.27870E-05 0.00000E+00
 -1       257-2.03418E-06-1.43672E-06 0.00000E+00
 -1       258-1.74960E-06-8.23436E-07 0.00000E+00
 -1       259-2.69975E-06-1.13275E-06 0.00000E+00
 -1       260-2.07563E-04 4.99880E-04 0.00000E+00
 -1       261-1.75768E-04 5.11480E-04 0.00000E+00
 -1       262-3.38384E-05 2.49252E-05 0.00000E+00
 -1       263-4.86690E-05 3.56657E-05 0.00000E+00
 -1       264-2.27168E-05 1.82761E-05 0.00000E+00
 -1       265-1.31372E-05 2.57132E-06 0.00000E+00
 -1       266-1.55532E-05 4.66202E-06 0.00000E+00
 -1       267-1.43193E-04 2.01204E-04 0.00000E+00
 -1       268-1.67801E-04 2.11638E-04 0.00000E+00
 -1       269-1.44035E-04 1.67962E-04 0.00000E+00
 -1       270-1.70135E-04 2.90705E-04 0.00000E+00
 -1       271-1.43892E-04 2.51340E-04 0.00000E+00
 -1       272-1.39146E-04 2.99211E-04 0.00000E+00
 -1       273-3.33588E-05 1.07637E-04 0.00000E+00
 -1       274-2.21949E-05 9.64360E-05 0.00000E+00
 -1       275-1.96097E-05 7.48903E-05 0.00000E+00
 -1       276-2.83044E-05 7.56904E-05 0.00000E+00
 -1       277-2.06263E-05 5.75317E-05 0.00000E+00
 -1       278-6.10050E-05 4.35346E-05 0.00000E+00
 -1       279-9.12126E-05 6.54650E-05 0.00000E+00
 -1       280-2.38332E-04 7.28825E-04 0.00000E+00
 -1       281-2.45776E-04 7.47045E-04 0.00000E+00
 -1       282-2.58601E-04 7.33913E-04 0.00000E+00
 -1       283-4.96278E-07-2.15958E-07 0.00000E+00
 -1       284-2.37676E-07-1.63200E-07 0.00000E+00
 -1       285-3.64456E-07-4.74692E-07 0.00000E+00
 -1       286-2.26123E-04 7.62485E-04 0.00000E+00
 -1       287-2.35701E-04 7.52998E-04 0.00000E+00
 -1       288-2.22564E-04 7.42650E-04 0.00000E+00
 -1       289-2.23965E-04 7.53246E-04 0.00000E+00
 -1       290-2.59166E-04 3.83780E-04 0.00000E+00
 -1       291-2.42807E-04 3.00687E-04 0.00000E+00
 -1       292-2.24666E-04 3.23228E-04 0.00000E+00
 -1       293-2.51946E-04 3.41504E-04 0.00000E+00
 -1       294-2.68350E-04 5.46092E-04 0.00000E+00
 -1       295-2.68513E-04 4.69171E-04 0.00000E+00
 -1       296-2.36472E-04 4.93119E-04 0.00000E+00
 -1       297-2.69514E-04 5.09934E-04 0.00000E+00
 -1       298-1.80956E-04 1.58732E-04 0.00000E+00
 -1       299-1.86465E-04 1.78318E-04 0.00000E+00
 -1       300-2.17970E-04 2.25943E-04 0.00000E+00
 -1       301-2.00942E-04 1.90931E-04 0.00000E+00
 -1       302-9.96365E-05 2.81078E-04 0.00000E+00
 -1       303-1.29977E-04 3.50727E-04 0.00000E+00
 -1       304-1.13565E-04 3.15143E-04 0.00000E+00
 -1       305-1.48929E-04 4.36499E-04 0.00000E+00
 -1       306-1.72364E-04 3.89077E-04 0.00000E+00
 -1       307-1.39724E-04 3.94747E-04 0.00000E+00
 -1       308-1.83636E-04 4.70680E-04 0.00000E+00
 -1       309-1.58732E-04 4.75244E-04 0.00000E+00
 -1       310-2.10896E-04 2.46501E-04 0.00000E+00
 -1       311-2.31670E-04 2.62337E-04 0.00000E+00
 -1       312-2.34588E-04 4.10628E-04 0.00000E+00
 -1       313-2.64761E-04 4.26757E-04 0.00000E+00
 -1       314-1.35525E-04 1.05004E-04 0.00000E+00
 -1       315-1.48403E-04 1.19569E-04 0.00000E+00
 -1       316-1.58910E-04 1.30148E-04 0.00000E+00
 -1       317-1.91304E-04 2.62248E-04 0.00000E+00
 -1       318-1.81511E-04 1.96922E-04 0.00000E+00
 -1       319-1.88685E-04 2.29101E-04 0.00000E+00
 -1       320-2.04395E-04 6.00301E-04 0.00000E+00
 -1       321-2.25335E-04 6.83832E-04 0.00000E+00
 -1       322-2.44395E-04 6.30596E-04 0.00000E+00
 -1       323-2.13696E-04 6.37799E-04 0.00000E+00
 -1       324-1.98947E-04 3.49805E-04 0.00000E+00
 -1       325-1.96670E-04 3.05707E-04 0.00000E+00
 -1       326-1.52489E-04 1.32176E-04 0.00000E+00
 -1       327-1.10973E-04 8.25004E-05 0.00000E+00
 -1       328-1.33208E-04 1.05969E-04 0.00000E+00
 -1       329-1.79885E-05 1.09151E-05 0.00000E+00
 -1       330-1.66562E-05 1.31677E-05 0.00000E+00
 -1       331-2.86015E-05 2.19283E-05 0.00000E+00
 -1       332-2.17621E-05 1.57629E-05 0.00000E+00
 -1       333-1.13149E-05 4.64530E-05 0.00000E+00
 -1       334-2.85529E-06 3.70477E-05 0.00000E+00
 -1       335-5.24779E-06 7.06433E-05 0.00000E+00
 -1       336-3.25671E-06 5.50896E-05 0.00000E+00
 -1       337-1.08743E-05 2.64731E-06 0.00000E+00
 -1       338-7.24931E-06 1.29811E-06 0.00000E+00
 -1       339-6.63101E-06 2.15804E-06 0.00000E+00
 -1       340-9.02767E-06 2.63768E-06 0.00000E+00
 -1       341-5.72294E-05 4.57931E-05 0.00000E+00
 -1       342-4.65231E-05 3.22273E-05 0.00000E+00
 -1       343-4.94767E-05 3.55190E-05 0.00000E+00
 -1       344-1.51232E-04 1.48229E-04 0.00000E+00
 -1       345-1.69310E-04 1.63338E-04 0.00000E+00
 -1       346-1.78957E-05 3.12773E-05 0.00000E+00
 -1       347-4.33867E-05 4.29396E-05 0.00000E+00
 -1       348-2.66391E-05 3.20890E-05 0.00000E+00
 -1       349-2.96871E-05 2.40401E-05 0.00000E+00
 -1       350-3.99620E-05 3.01299E-05 0.00000E+00
 -1       351-2.35841E-04 5.67990E-04 0.00000E+00
 -1       352-1.93432E-04 5.61302E-04 0.00000E+00
 -1       353-1.11303E-04 2.30048E-04 0.00000E+00
 -1       354-7.47485E-05 2.06636E-04 0.00000E+00
 -1       355-8.75633E-05 2.44304E-04 0.00000E+00
 -1       356-1.64017E-05 7.38601E-06 0.00000E+00
 -1       357-7.23480E-06 2.82994E-07 0.00000E+00
 -1       358-4.83764E-06-1.05613E-07 0.00000E+00
 -1       359-4.32839E-06 4.80362E-07 0.00000E+00
 -1       360-5.95843E-06 4.83922E-07 0.00000E+00
 -1       361-2.73748E-04 6.19020E-04 0.00000E+00
 -1       362-2.71425E-04 5.84662E-04 0.00000E+00
 -1       363-7.70993E-05 1.52147E-04 0.00000E+00
 -1       364-1.10226E-04 1.73319E-04 0.00000E+00
 -1       365-9.00196E-05 1.12354E-04 0.00000E+00
 -1       366-8.73759E-05 1.34816E-04 0.00000E+00
 -1       367-3.31469E-06-8.79267E-07 0.00000E+00
 -1       368-3.55647E-06-1.81281E-06 0.00000E+00
 -1       369-1.23217E-05 1.08535E-05 0.00000E+00
 -1       370-1.67936E-05 1.43655E-05 0.00000E+00
 -1       371-4.88445E-05 1.29394E-04 0.00000E+00
 -1       372-3.80116E-05 9.91375E-05 0.00000E+00
 -1       373-6.10771E-05 1.68254E-04 0.00000E+00
 -1       374-8.11249E-06 2.04711E-05 0.00000E+00
 -1       375-1.46657E-05 3.69522E-05 0.00000E+00
 -1       376-7.55802E-05 5.31484E-05 0.00000E+00
 -1       377-6.25108E-05 4.44964E-05 0.00000E+00
 -1       378-1.29193E-04 2.14388E-04 0.00000E+00
 -1       379-7.50110E-06 5.41476E-06 0.00000E+00
 -1       380-9.45903E-06 7.93443E-06 0.00000E+00
 -1       381-4.56072E-06-9.01089E-07 0.00000E+00
 -1       382-6.10243E-06-1.13973E-06 0.00000E+00
 -1       383-4.85016E-06-1.52280E-06 0.00000E+00
 -1       384-9.16615E-06 1.78145E-07 0.00000E+00
 -1       385-7.57320E-06-5.76244E-07 0.00000E+00
 -1       386-7.36909E-05 5.17443E-05 0.00000E+00
 -1       387-3.95108E-05 2.77381E-05 0.00000E+00
 -1       388-1.02117E-06-7.44968E-07 0.00000E+00
 -1       389-1.29341E-06-3.22785E-07 0.00000E+00
 -1       390-1.12304E-06-4.94082E-07 0.00000E+00
 -1       391-1.86524E-06 3.55332E-08 0.00000E+00
 -1       392-2.88281E-06-3.28756E-07 0.00000E+00
 -1       393-1.53734E-06-1.48189E-07 0.00000E+00
 -1       394-1.32985E-06-1.70191E-06 0.00000E+00
 -1       395-7.83598E-07-1.13834E-06 0.00000E+00
 -1       396-4.54884E-06 2.09527E-06 0.00000E+00
 -1       397-2.88518E-06 6.58148E-07 0.00000E+00
 -1       398-3.60742E-06 1.22776E-06 0.00000E+00
 -1       399-2.32195E-06 2.97434E-07 0.00000E+00
 -1       400-5.89742E-06 3.50808E-06 0.00000E+00
 -1       401-2.71807E-04 6.96128E-04 0.00000E+00
 -1       402-2.78811E-04 7.31623E-04 0.00000E+00
 -1       403-1.11797E-05 1.31465E-06 0.00000E+00
 -1       404-3.90733E-06-5.31316E-07 0.00000E+00
 -1       405-1.12426E-04 1.13496E-04 0.00000E+00
 -1       406-1.33085E-04 1.32580E-04 0.00000E+00
 -1       407-1.05449E-04 7.66588E-05 0.00000E+00
 -1       408-9.25987E-05 6.59956E-05 0.00000E+00
 -1       409-2.08400E-04 4.40119E-04 0.00000E+00
 -1       410-2.04130E-04 3.96598E-04 0.00000E+00
 -1       411-2.47037E-04 7.68901E-04 0.00000E+00
 -1       412-2.46879E-04 7.58239E-04 0.00000E+00
 -1       413-1.41420E-05 8.34688E-05 0.00000E+00
 -1       414-2.74885E-04 6.54107E-04 0.00000E+00
 -1       415-2.31465E-04 7.71192E-04 0.00000E+00
 -1       416-2.22301E-04 7.16817E-04 0.00000E+00
 -1       417-1.84479E-06-1.96976E-06 0.00000E+00
 -1       418-2.09501E-04 4.78975E-04 0.00000E+00
 -1       419-7.74496E-05 7.62008E-05 0.00000E+00
 -1       420-3.24287E-06 1.78398E-05 0.00000E+00
 -1       421-1.12253E-04 8.37876E-05 0.00000E+00
 -1       422-1.14956E-05 5.67933E-06 0.00000E+00
 -1       423-2.81757E-06-2.26212E-06 0.00000E+00
 -1       424-4.86032E-05 8.31462E-05 0.00000E+00
 -1       425-2.72993E-04 7.65221E-04 0.00000E+00
 -1       426-1.08472E-04 8.71454E-05 0.00000E+00
 -1       427-2.09710E-06-1.09485E-06 0.00000E+00
 -1       428-3.53657E-05 2.66788E-05 0.00000E+00
 -1       429-1.48108E-05 3.15582E-06 0.00000E+00
 -1       430-1.51791E-04 1.94216E-04 0.00000E+00
 -1       431-1.52437E-04 2.81983E-04 0.00000E+00
 -1       432-2.86056E-05 1.08797E-04 0.00000E+00
 -1       433-2.27284E-05 6.86819E-05 0.00000E+00
 -1       434-7.74162E-05 5.45273E-05 0.00000E+00
 -1       435-2.47184E-04 7.37245E-04 0.00000E+00
 -1       436-2.36965E-07-1.17083E-07 0.00000E+00
 -1       437-1.94253E-07-1.92199E-07 0.00000E+00
 -1       438-2.19602E-04 7.63064E-04 0.00000E+00
 -1       439-2.25063E-04 7.57862E-04 0.00000E+00
 -1       440-2.17697E-04 7.53727E-04 0.00000E+00
 -1       441-2.31232E-04 7.61978E-04 0.00000E+00
 -1       442-2.36034E-04 7.57231E-04 0.00000E+00
 -1       443-2.29835E-04 7.53125E-04 0.00000E+00
 -1       444-2.35636E-04 7.48185E-04 0.00000E+00
 -1       445-2.29047E-04 7.43016E-04 0.00000E+00
 -1       446-2.23286E-04 7.47948E-04 0.00000E+00
 -1       447-2.16092E-04 7.43757E-04 0.00000E+00
 -1       448-2.44506E-04 3.74754E-04 0.00000E+00
 -1       449-2.55916E-04 3.62618E-04 0.00000E+00
 -1       450-2.38257E-04 3.32068E-04 0.00000E+00
 -1       451-2.27633E-04 3.44684E-04 0.00000E+00
 -1       452-2.73594E-04 3.93085E-04 0.00000E+00
 -1       453-2.65301E-04 3.51093E-04 0.00000E+00
 -1       454-2.54757E-04 3.10052E-04 0.00000E+00
 -1       455-2.47764E-04 3.21007E-04 0.00000E+00
 -1       456-2.30480E-04 2.91270E-04 0.00000E+00
 -1       457-2.21815E-04 3.02689E-04 0.00000E+00
 -1       458-2.47073E-04 5.35066E-04 0.00000E+00
 -1       459-2.69119E-04 5.28151E-04 0.00000E+00
 -1       460-2.53001E-04 5.01360E-04 0.00000E+00
 -1       461-2.31230E-04 5.08865E-04 0.00000E+00
 -1       462-2.86758E-04 5.55533E-04 0.00000E+00
 -1       463-2.86403E-04 5.17810E-04 0.00000E+00
 -1       464-2.84280E-04 4.77232E-04 0.00000E+00
 -1       465-2.69275E-04 4.89684E-04 0.00000E+00
 -1       466-2.53037E-04 4.61216E-04 0.00000E+00
 -1       467-2.37247E-04 4.73473E-04 0.00000E+00
 -1       468-2.07423E-04 1.97451E-04 0.00000E+00
 -1       469-2.09883E-04 2.08139E-04 0.00000E+00
 -1       470-2.26172E-04 2.33217E-04 0.00000E+00
 -1       471-1.85970E-04 1.64442E-04 0.00000E+00
 -1       472-1.91323E-04 1.74478E-04 0.00000E+00
 -1       473-1.74985E-04 1.52666E-04 0.00000E+00
 -1       474-1.77900E-04 1.62056E-04 0.00000E+00
 -1       475-1.93922E-04 1.84563E-04 0.00000E+00
 -1       476-1.94018E-04 1.95058E-04 0.00000E+00
 -1       477-2.09429E-04 2.19064E-04 0.00000E+00
 -1       478-1.12922E-04 2.74033E-04 0.00000E+00
 -1       479-1.06547E-04 2.98003E-04 0.00000E+00
 -1       480-1.26823E-04 3.07158E-04 0.00000E+00
 -1       481-1.32150E-04 2.83049E-04 0.00000E+00
 -1       482-8.48070E-05 2.87180E-04 0.00000E+00
 -1       483-9.74484E-05 3.22449E-04 0.00000E+00
 -1       484-1.11506E-04 3.58967E-04 0.00000E+00
 -1       485-1.21715E-04 3.32781E-04 0.00000E+00
 -1       486-1.47007E-04 3.42304E-04 0.00000E+00
 -1       487-1.50861E-04 3.16361E-04 0.00000E+00
 -1       488-1.22079E-04 4.00220E-04 0.00000E+00
 -1       489-1.34851E-04 3.72609E-04 0.00000E+00
 -1       490-1.32630E-04 4.40808E-04 0.00000E+00
 -1       491-1.44326E-04 4.15546E-04 0.00000E+00
 -1       492-1.64570E-04 4.34687E-04 0.00000E+00
 -1       493-1.76038E-04 4.10970E-04 0.00000E+00
 -1       494-1.56452E-04 3.91861E-04 0.00000E+00
 -1       495-1.67662E-04 3.61340E-04 0.00000E+00
 -1       496-1.43761E-04 4.80183E-04 0.00000E+00
 -1       497-1.53822E-04 4.55847E-04 0.00000E+00
 -1       498-1.58853E-04 5.18342E-04 0.00000E+00
 -1       499-1.67247E-04 4.93352E-04 0.00000E+00
 -1       500-1.81421E-04 5.03928E-04 0.00000E+00
 -1       501-1.85324E-04 4.83523E-04 0.00000E+00
 -1       502-1.71391E-04 4.72943E-04 0.00000E+00
 -1       503-1.81669E-04 4.51835E-04 0.00000E+00
 -1       504-2.41829E-04 2.70749E-04 0.00000E+00
 -1       505-2.37638E-04 2.81361E-04 0.00000E+00
 -1       506-2.25235E-04 2.43921E-04 0.00000E+00
 -1       507-2.06151E-04 2.29250E-04 0.00000E+00
 -1       508-2.21330E-04 2.54204E-04 0.00000E+00
 -1       509-2.14947E-04 2.64292E-04 0.00000E+00
 -1       510-2.79910E-04 4.35412E-04 0.00000E+00
 -1       511-2.66929E-04 4.48052E-04 0.00000E+00
 -1       512-2.62290E-04 4.05304E-04 0.00000E+00
 -1       513-2.32539E-04 3.88441E-04 0.00000E+00
 -1       514-2.49638E-04 4.18457E-04 0.00000E+00
 -1       515-2.36325E-04 4.32181E-04 0.00000E+00
 -1       516-1.62573E-04 1.34805E-04 0.00000E+00
 -1       517-1.70214E-04 1.44071E-04 0.00000E+00
 -1       518-1.38018E-04 1.08547E-04 0.00000E+00
 -1       519-1.47381E-04 1.17220E-04 0.00000E+00
 -1       520-1.31722E-04 1.00849E-04 0.00000E+00
 -1       521-1.37963E-04 1.07651E-04 0.00000E+00
 -1       522-1.54044E-04 1.24949E-04 0.00000E+00
 -1       523-1.58755E-04 1.32708E-04 0.00000E+00
 -1       524-1.77976E-04 2.52435E-04 0.00000E+00
 -1       525-1.90448E-04 2.45509E-04 0.00000E+00
 -1       526-1.78260E-04 2.20291E-04 0.00000E+00
 -1       527-1.66779E-04 2.27107E-04 0.00000E+00
 -1       528-2.04769E-04 2.72100E-04 0.00000E+00
 -1       529-1.99833E-04 2.37653E-04 0.00000E+00
 -1       530-1.91139E-04 2.04609E-04 0.00000E+00
 -1       531-1.85541E-04 2.12774E-04 0.00000E+00
 -1       532-1.71951E-04 1.89419E-04 0.00000E+00
 -1       533-1.65433E-04 1.96583E-04 0.00000E+00
 -1       534-2.22645E-04 5.99174E-04 0.00000E+00
 -1       535-2.09147E-04 6.19251E-04 0.00000E+00
 -1       536-2.29155E-04 6.34169E-04 0.00000E+00
 -1       537-2.42527E-04 6.14552E-04 0.00000E+00
 -1       538-1.86246E-04 6.01823E-04 0.00000E+00
 -1       539-1.97093E-04 6.39215E-04 0.00000E+00
 -1       540-2.08665E-04 6.80118E-04 0.00000E+00
 -1       541-2.19763E-04 6.61132E-04 0.00000E+00
 -1       542-2.36539E-04 6.77256E-04 0.00000E+00
 -1       543-2.46203E-04 6.50881E-04 0.00000E+00
 -1       544-1.81050E-04 3.41620E-04 0.00000E+00
 -1       545-1.98156E-04 3.27662E-04 0.00000E+00
 -1       546-1.83486E-04 2.98045E-04 0.00000E+00
 -1       547-1.66962E-04 3.12264E-04 0.00000E+00
 -1       548-2.14513E-04 3.57803E-04 0.00000E+00
 -1       549-2.10706E-04 3.14233E-04 0.00000E+00
 -1       550-1.94394E-04 2.83796E-04 0.00000E+00
 -1       551-1.67768E-04 2.66618E-04 0.00000E+00
 -1       552-1.44072E-04 1.24824E-04 0.00000E+00
 -1       553-1.43238E-04 1.18689E-04 0.00000E+00
 -1       554-1.25425E-04 9.94714E-05 0.00000E+00
 -1       555-1.26704E-04 1.04718E-04 0.00000E+00
 -1       556-1.60665E-04 1.39409E-04 0.00000E+00
 -1       557-1.41093E-04 1.12855E-04 0.00000E+00
 -1       558-1.19418E-04 8.95801E-05 0.00000E+00
 -1       559-1.22375E-04 9.38685E-05 0.00000E+00
 -1       560-1.01181E-04 7.46054E-05 0.00000E+00
 -1       561-1.04329E-04 7.91541E-05 0.00000E+00
 -1       562-2.33702E-05 1.57360E-05 0.00000E+00
 -1       563-2.48333E-05 1.87004E-05 0.00000E+00
 -1       564-3.01959E-05 2.18556E-05 0.00000E+00
 -1       565-1.94456E-05 1.08539E-05 0.00000E+00
 -1       566-1.96398E-05 1.32177E-05 0.00000E+00
 -1       567-1.58094E-05 1.00774E-05 0.00000E+00
 -1       568-1.47570E-05 1.08479E-05 0.00000E+00
 -1       569-1.94644E-05 1.48334E-05 0.00000E+00
 -1       570-1.90280E-05 1.56085E-05 0.00000E+00
 -1       571-2.55969E-05 2.05447E-05 0.00000E+00
 -1       572-1.30992E-05 5.44268E-05 0.00000E+00
 -1       573-8.08172E-06 5.03253E-05 0.00000E+00
 -1       574-4.14189E-06 6.31781E-05 0.00000E+00
 -1       575-1.06629E-05 6.60077E-05 0.00000E+00
 -1       576-9.96022E-06 4.01439E-05 0.00000E+00
 -1       577-6.05233E-06 3.50657E-05 0.00000E+00
 -1       578-2.98980E-06 4.63417E-05 0.00000E+00
 -1       579 4.60586E-06 4.25490E-05 0.00000E+00
 -1       580 4.52198E-06 6.07653E-05 0.00000E+00
 -1       581 2.18960E-06 7.58286E-05 0.00000E+00
 -1       582-9.52630E-06 4.02869E-06 0.00000E+00
 -1       583-9.87291E-06 3.41767E-06 0.00000E+00
 -1       584-7.87549E-06 2.43452E-06 0.00000E+00
 -1       585-7.40751E-06 2.86079E-06 0.00000E+00
 -1       586-1.18651E-05 4.34510E-06 0.00000E+00
 -1       587-1.18885E-05 3.44152E-06 0.00000E+00
 -1       588-9.98998E-06 2.67705E-06 0.00000E+00
 -1       589-9.80507E-06 1.86062E-06 0.00000E+00
 -1       590-8.00857E-06 1.24595E-06 0.00000E+00
 -1       591-8.13955E-06 1.92872E-06 0.00000E+00
 -1       592-6.32566E-06 1.24311E-06 0.00000E+00
 -1       593-5.98125E-06 1.61809E-06 0.00000E+00
 -1       594-2.88912E-05 2.20502E-05 0.00000E+00
 -1       595-5.38806E-05 4.04265E-05 0.00000E+00
 -1       596-2.52733E-05 1.74097E-05 0.00000E+00
 -1       597-7.66029E-05 6.32591E-05 0.00000E+00
 -1       598-9.18687E-05 7.38024E-05 0.00000E+00
 -1       599-6.88364E-05 5.10470E-05 0.00000E+00
 -1       600-8.93903E-05 6.67869E-05 0.00000E+00
 -1       601-6.91586E-05 4.90403E-05 0.00000E+00
 -1       602-4.83564E-05 3.38484E-05 0.00000E+00
 -1       603-2.36972E-05 1.62211E-05 0.00000E+00
 -1       604-1.78024E-04 1.70801E-04 0.00000E+00
 -1       605-1.75956E-04 1.79762E-04 0.00000E+00
 -1       606-1.61418E-04 1.47328E-04 0.00000E+00
 -1       607-1.43903E-04 1.32332E-04 0.00000E+00
 -1       608-1.60373E-04 1.55801E-04 0.00000E+00
 -1       609-1.57363E-04 1.64690E-04 0.00000E+00
 -1       610-1.43789E-05 1.49994E-05 0.00000E+00
 -1       611-3.47083E-05 3.74439E-05 0.00000E+00
 -1       612-2.38404E-05 1.98607E-05 0.00000E+00
 -1       613-9.46394E-06 1.52795E-05 0.00000E+00
 -1       614-2.21081E-05 3.14302E-05 0.00000E+00
 -1       615-2.42911E-05 4.69085E-05 0.00000E+00
 -1       616-3.55674E-05 6.25715E-05 0.00000E+00
 -1       617-3.49540E-05 4.70568E-05 0.00000E+00
 -1       618-5.07610E-05 7.01997E-05 0.00000E+00
 -1       619-5.30225E-05 5.95693E-05 0.00000E+00
 -1       620-4.09678E-05 2.98278E-05 0.00000E+00
 -1       621-4.99371E-05 3.65917E-05 0.00000E+00
 -1       622-5.86308E-05 4.16937E-05 0.00000E+00
 -1       623-3.38225E-05 2.58585E-05 0.00000E+00
 -1       624-2.55351E-05 2.10822E-05 0.00000E+00
 -1       625-3.53307E-05 2.76664E-05 0.00000E+00
 -1       626-3.53194E-05 2.77328E-05 0.00000E+00
 -1       627-5.13886E-05 3.77187E-05 0.00000E+00
 -1       628-1.98986E-04 5.80967E-04 0.00000E+00
 -1       629-1.74291E-04 5.63001E-04 0.00000E+00
 -1       630-2.38227E-04 5.83205E-04 0.00000E+00
 -1       631-2.14954E-04 5.64529E-04 0.00000E+00
 -1       632-2.30829E-04 5.46386E-04 0.00000E+00
 -1       633-2.01126E-04 5.17760E-04 0.00000E+00
 -1       634-1.84653E-04 5.36528E-04 0.00000E+00
 -1       635-7.33280E-05 2.50858E-04 0.00000E+00
 -1       636-8.10015E-05 2.25567E-04 0.00000E+00
 -1       637-6.17022E-05 2.14084E-04 0.00000E+00
 -1       638-9.35286E-05 2.62654E-04 0.00000E+00
 -1       639-1.18224E-04 2.48508E-04 0.00000E+00
 -1       640-9.99700E-05 2.37083E-04 0.00000E+00
 -1       641-1.03161E-04 2.10548E-04 0.00000E+00
 -1       642-8.55878E-05 1.98638E-04 0.00000E+00
 -1       643-1.75898E-05 7.09440E-06 0.00000E+00
 -1       644-1.70901E-05 9.07704E-06 0.00000E+00
 -1       645-1.67055E-05 4.09964E-06 0.00000E+00
 -1       646-1.59451E-05 5.98499E-06 0.00000E+00
 -1       647-1.42844E-05 4.53989E-06 0.00000E+00
 -1       648-1.31834E-05 5.51076E-06 0.00000E+00
 -1       649-1.50477E-05 7.19310E-06 0.00000E+00
 -1       650-1.33896E-05 7.79745E-06 0.00000E+00
 -1       651-6.60491E-06 8.71038E-07 0.00000E+00
 -1       652-5.16641E-06 4.95689E-07 0.00000E+00
 -1       653-4.83236E-06 7.92930E-07 0.00000E+00
 -1       654-7.97784E-06 6.97328E-07 0.00000E+00
 -1       655-6.61842E-06 3.98271E-07 0.00000E+00
 -1       656-6.52683E-06-7.16486E-08 0.00000E+00
 -1       657-5.34346E-06-2.38169E-07 0.00000E+00
 -1       658-5.39779E-06 1.75167E-07 0.00000E+00
 -1       659-4.19056E-06-3.85080E-08 0.00000E+00
 -1       660-3.91937E-06 2.37292E-07 0.00000E+00
 -1       661-2.57238E-04 6.08573E-04 0.00000E+00
 -1       662-2.72718E-04 6.02028E-04 0.00000E+00
 -1       663-2.53736E-04 5.76231E-04 0.00000E+00
 -1       664-2.89981E-04 6.29153E-04 0.00000E+00
 -1       665-2.88734E-04 5.93794E-04 0.00000E+00
 -1       666-2.70057E-04 5.65574E-04 0.00000E+00
 -1       667-6.74270E-05 1.33735E-04 0.00000E+00
 -1       668-8.28029E-05 1.43175E-04 0.00000E+00
 -1       669-7.45739E-05 1.16078E-04 0.00000E+00
 -1       670-6.05354E-05 1.06570E-04 0.00000E+00
 -1       671-8.60506E-05 1.71707E-04 0.00000E+00
 -1       672-1.03317E-04 1.81895E-04 0.00000E+00
 -1       673-9.87870E-05 1.54056E-04 0.00000E+00
 -1       674-1.17498E-04 1.63937E-04 0.00000E+00
 -1       675-1.06657E-04 1.33678E-04 0.00000E+00
 -1       676-8.93180E-05 1.23226E-04 0.00000E+00
 -1       677-7.49816E-05 9.48251E-05 0.00000E+00
 -1       678-6.17132E-05 8.74617E-05 0.00000E+00
 -1       679-2.71140E-06-1.35952E-06 0.00000E+00
 -1       680-3.11420E-06-1.16327E-06 0.00000E+00
 -1       681-3.56506E-06-1.47973E-06 0.00000E+00
 -1       682-3.12614E-06-1.71732E-06 0.00000E+00
 -1       683-2.56932E-06-8.98823E-07 0.00000E+00
 -1       684-2.86393E-06-7.91197E-07 0.00000E+00
 -1       685-3.43088E-06-1.02330E-06 0.00000E+00
 -1       686-2.37328E-05 1.97678E-05 0.00000E+00
 -1       687-1.96871E-05 1.63604E-05 0.00000E+00
 -1       688-3.25187E-05 2.53952E-05 0.00000E+00
 -1       689-1.74227E-05 1.49300E-05 0.00000E+00
 -1       690-1.44423E-05 1.26434E-05 0.00000E+00
 -1       691-6.45058E-06 5.84438E-06 0.00000E+00
 -1       692-8.88949E-06 7.83298E-06 0.00000E+00
 -1       693-1.21202E-05 9.87413E-06 0.00000E+00
 -1       694-5.01894E-05 1.02227E-04 0.00000E+00
 -1       695-4.05353E-05 9.41312E-05 0.00000E+00
 -1       696-4.31293E-05 1.13746E-04 0.00000E+00
 -1       697-5.38490E-05 1.22403E-04 0.00000E+00
 -1       698-3.61955E-05 7.60615E-05 0.00000E+00
 -1       699-2.91609E-05 6.91178E-05 0.00000E+00
 -1       700-3.31242E-05 8.74094E-05 0.00000E+00
 -1       701-2.72780E-05 8.11877E-05 0.00000E+00
 -1       702-2.97388E-05 9.72071E-05 0.00000E+00
 -1       703-3.54809E-05 1.03437E-04 0.00000E+00
 -1       704-3.59850E-05 1.23399E-04 0.00000E+00
 -1       705-4.32629E-05 1.34923E-04 0.00000E+00
 -1       706-6.98331E-05 1.59821E-04 0.00000E+00
 -1       707-6.76131E-05 1.87754E-04 0.00000E+00
 -1       708-5.49785E-05 1.48694E-04 0.00000E+00
 -1       709-5.07756E-05 1.75917E-04 0.00000E+00
 -1       710-1.78704E-05 5.96027E-05 0.00000E+00
 -1       711-1.77807E-05 4.73614E-05 0.00000E+00
 -1       712-1.33131E-05 4.13489E-05 0.00000E+00
 -1       713-2.49717E-05 6.01169E-05 0.00000E+00
 -1       714-1.63612E-05 3.38986E-05 0.00000E+00
 -1       715-4.84529E-06 9.14565E-06 0.00000E+00
 -1       716-1.13782E-05 2.89415E-05 0.00000E+00
 -1       717-8.52704E-06 2.67384E-05 0.00000E+00
 -1       718-4.50037E-05 3.35460E-05 0.00000E+00
 -1       719-5.56180E-05 4.01031E-05 0.00000E+00
 -1       720-6.22247E-05 4.43616E-05 0.00000E+00
 -1       721-5.39794E-05 3.87908E-05 0.00000E+00
 -1       722-6.75136E-05 4.75743E-05 0.00000E+00
 -1       723-6.91107E-05 4.87505E-05 0.00000E+00
 -1       724-8.05086E-05 5.66777E-05 0.00000E+00
 -1       725-7.31788E-05 5.14558E-05 0.00000E+00
 -1       726-1.34996E-04 2.59152E-04 0.00000E+00
 -1       727-1.36561E-04 2.32776E-04 0.00000E+00
 -1       728-1.20757E-04 2.22099E-04 0.00000E+00
 -1       729-1.54643E-04 2.47056E-04 0.00000E+00
 -1       730-1.53893E-04 2.21882E-04 0.00000E+00
 -1       731-1.36609E-04 2.07685E-04 0.00000E+00
 -1       732-1.33600E-04 1.77901E-04 0.00000E+00
 -1       733-1.19745E-04 1.93805E-04 0.00000E+00
 -1       734-1.07856E-05 9.38135E-06 0.00000E+00
 -1       735-4.99016E-06 4.26973E-06 0.00000E+00
 -1       736-1.33401E-05 1.08940E-05 0.00000E+00
 -1       737-1.06291E-05 7.36091E-06 0.00000E+00
 -1       738-8.39544E-06 6.62795E-06 0.00000E+00
 -1       739-3.94914E-06 2.87701E-06 0.00000E+00
 -1       740-4.04449E-06-1.04809E-06 0.00000E+00
 -1       741-4.72583E-06-1.19642E-06 0.00000E+00
 -1       742-4.19877E-06-1.68069E-06 0.00000E+00
 -1       743-5.18715E-06-6.59579E-07 0.00000E+00
 -1       744-5.98794E-06-7.42649E-07 0.00000E+00
 -1       745-5.47423E-06-1.34294E-06 0.00000E+00
 -1       746-6.04032E-06-1.62599E-06 0.00000E+00
 -1       747-4.85117E-06-1.93604E-06 0.00000E+00
 -1       748-3.65356E-06-2.16380E-06 0.00000E+00
 -1       749-7.43838E-06-1.18202E-07 0.00000E+00
 -1       750-6.83845E-06-8.73124E-07 0.00000E+00
 -1       751-8.97756E-06 6.95918E-07 0.00000E+00
 -1       752-8.37459E-06-2.15117E-07 0.00000E+00
 -1       753-9.14286E-06-4.61332E-07 0.00000E+00
 -1       754-7.56029E-06-1.12297E-06 0.00000E+00
 -1       755-4.65982E-05 3.35498E-05 0.00000E+00
 -1       756-3.68909E-05 2.64284E-05 0.00000E+00
 -1       757-5.69199E-05 3.97984E-05 0.00000E+00
 -1       758-6.66475E-05 4.67796E-05 0.00000E+00
 -1       759-1.67323E-05 1.29646E-05 0.00000E+00
 -1       760-1.99600E-05 1.42911E-05 0.00000E+00
 -1       761-4.32771E-05 3.00159E-05 0.00000E+00
 -1       762-8.27675E-05 5.89345E-05 0.00000E+00
 -1       763-1.25589E-06-9.33364E-07 0.00000E+00
 -1       764-1.08162E-06-6.08811E-07 0.00000E+00
 -1       765-1.44238E-06-6.58768E-07 0.00000E+00
 -1       766-1.62470E-06-9.57632E-07 0.00000E+00
 -1       767-7.81980E-07-5.66584E-07 0.00000E+00
 -1       768-5.26059E-07-2.87803E-07 0.00000E+00
 -1       769-8.14061E-07-3.57267E-07 0.00000E+00
 -1       770-2.62973E-07-8.57951E-08 0.00000E+00
 -1       771-6.57890E-07-1.61397E-07 0.00000E+00
 -1       772-1.21048E-06-4.04212E-07 0.00000E+00
 -1       773-1.86578E-06-5.04008E-07 0.00000E+00
 -1       774-2.07545E-06-7.63904E-07 0.00000E+00
 -1       775-9.48181E-07 2.19085E-08 0.00000E+00
 -1       776-1.70064E-06-5.80291E-08 0.00000E+00
 -1       777-7.82576E-07-6.93671E-08 0.00000E+00
 -1       778-2.70501E-06 2.94311E-08 0.00000E+00
 -1       779-3.19717E-06-1.61339E-07 0.00000E+00
 -1       780-2.22288E-06-2.36153E-07 0.00000E+00
 -1       781-2.64998E-06-5.05518E-07 0.00000E+00
 -1       782-1.41636E-06-2.33596E-07 0.00000E+00
 -1       783-5.78283E-07-1.37318E-06 0.00000E+00
 -1       784-1.05341E-06-1.43305E-06 0.00000E+00
 -1       785-1.17435E-06-2.16246E-06 0.00000E+00
 -1       786-1.47543E-07-2.62589E-07 0.00000E+00
 -1       787-6.07296E-07-7.95504E-07 0.00000E+00
 -1       788-4.61919E-07-4.22608E-07 0.00000E+00
 -1       789-9.32266E-07-9.16299E-07 0.00000E+00
 -1       790-1.43016E-06-1.39100E-06 0.00000E+00
 -1       791-2.34953E-06 1.06887E-06 0.00000E+00
 -1       792-4.06825E-06 1.63029E-06 0.00000E+00
 -1       793-1.85538E-06 6.31756E-07 0.00000E+00
 -1       794-6.45295E-06 2.92912E-06 0.00000E+00
 -1       795-5.16976E-06 1.72259E-06 0.00000E+00
 -1       796-4.14546E-06 9.15388E-07 0.00000E+00
 -1       797-3.24188E-06 9.23670E-07 0.00000E+00
 -1       798-1.47435E-06 3.36288E-07 0.00000E+00
 -1       799-2.60132E-06 4.67710E-07 0.00000E+00
 -1       800-1.18463E-06 1.57899E-07 0.00000E+00
 -1       801-3.34877E-06 3.99019E-07 0.00000E+00
 -1       802-2.09215E-06 1.60876E-07 0.00000E+00
 -1       803-6.64997E-06 4.39521E-06 0.00000E+00
 -1       804-3.08164E-06 1.83839E-06 0.00000E+00
 -1       805-1.15161E-05 7.04129E-06 0.00000E+00
 -1       806-7.98226E-06 4.61919E-06 0.00000E+00
 -1       807-9.01631E-06 4.54618E-06 0.00000E+00
 -1       808-5.19692E-06 2.74671E-06 0.00000E+00
 -1       809-2.91664E-04 7.35711E-04 0.00000E+00
 -1       810-2.78868E-04 7.43903E-04 0.00000E+00
 -1       811-2.91041E-04 7.64143E-04 0.00000E+00
 -1       812-2.88604E-04 7.01683E-04 0.00000E+00
 -1       813-2.75513E-04 7.13992E-04 0.00000E+00
 -1       814-2.60379E-04 7.03561E-04 0.00000E+00
 -1       815-2.53819E-04 7.22479E-04 0.00000E+00
 -1       816-2.68739E-04 7.32763E-04 0.00000E+00
 -1       817-2.58813E-04 7.42277E-04 0.00000E+00
 -1       818-2.68860E-04 7.53407E-04 0.00000E+00
 -1       819-1.11996E-05 5.74163E-07 0.00000E+00
 -1       820-1.21759E-05 1.93120E-06 0.00000E+00
 -1       821-1.31620E-05 1.71654E-06 0.00000E+00
 -1       822-1.01869E-05 7.25432E-07 0.00000E+00
 -1       823-1.10640E-05 2.01108E-06 0.00000E+00
 -1       824-1.30364E-05 3.44704E-06 0.00000E+00
 -1       825-4.37120E-06-3.27112E-07 0.00000E+00
 -1       826-3.40500E-06-4.27437E-07 0.00000E+00
 -1       827-4.24757E-06-7.06832E-07 0.00000E+00
 -1       828-3.61229E-06-7.05918E-07 0.00000E+00
 -1       829-1.33735E-04 1.61591E-04 0.00000E+00
 -1       830-1.39294E-04 1.49783E-04 0.00000E+00
 -1       831-1.22774E-04 1.23078E-04 0.00000E+00
 -1       832-1.19088E-04 1.33543E-04 0.00000E+00
 -1       833-1.53181E-04 1.74970E-04 0.00000E+00
 -1       834-1.42214E-04 1.40436E-04 0.00000E+00
 -1       835-1.26732E-04 1.09845E-04 0.00000E+00
 -1       836-1.26196E-04 1.16902E-04 0.00000E+00
 -1       837-1.06779E-04 9.16390E-05 0.00000E+00
 -1       838-1.04882E-04 9.66058E-05 0.00000E+00
 -1       839-1.02206E-04 7.41292E-05 0.00000E+00
 -1       840-8.34270E-05 5.89409E-05 0.00000E+00
 -1       841-1.16518E-04 8.63623E-05 0.00000E+00
 -1       842-9.93429E-05 7.14019E-05 0.00000E+00
 -1       843-9.53483E-05 6.82737E-05 0.00000E+00
 -1       844-8.43523E-05 5.95409E-05 0.00000E+00
 -1       845-2.59908E-04 6.83464E-04 0.00000E+00
 -1       846-2.37269E-04 6.97464E-04 0.00000E+00
 -1       847-1.94153E-04 4.36445E-04 0.00000E+00
 -1       848-2.06418E-04 4.18355E-04 0.00000E+00
 -1       849-1.88471E-04 3.92702E-04 0.00000E+00
 -1       850-2.23067E-04 4.46740E-04 0.00000E+00
 -1       851-2.19436E-04 4.03423E-04 0.00000E+00
 -1       852-2.01753E-04 3.73136E-04 0.00000E+00
 -1       853-2.52365E-04 7.48844E-04 0.00000E+00
 -1       854-2.46353E-04 7.52641E-04 0.00000E+00
 -1       855-2.52621E-04 7.61093E-04 0.00000E+00
 -1       856-2.58663E-04 7.57281E-04 0.00000E+00
 -1       857-2.40663E-04 7.45213E-04 0.00000E+00
 -1       858-2.41303E-04 7.55623E-04 0.00000E+00
 -1       859-2.41705E-04 7.65190E-04 0.00000E+00
 -1       860-2.46981E-04 7.63567E-04 0.00000E+00
 -1       861-2.53519E-04 7.73157E-04 0.00000E+00
 -1       862-2.59178E-04 7.70660E-04 0.00000E+00
 -1       863-2.09341E-05 1.01661E-04 0.00000E+00
 -1       864-1.82225E-05 8.99171E-05 0.00000E+00
 -1       865-1.08566E-05 8.83929E-05 0.00000E+00
 -1       866-2.41606E-05 9.15988E-05 0.00000E+00
 -1       867-2.27795E-05 8.08840E-05 0.00000E+00
 -1       868-1.70013E-05 7.91375E-05 0.00000E+00
 -1       869-1.71887E-05 6.85884E-05 0.00000E+00
 -1       870-9.76148E-06 7.72391E-05 0.00000E+00
 -1       871-2.74459E-04 6.36778E-04 0.00000E+00
 -1       872-2.90414E-04 6.64046E-04 0.00000E+00
 -1       873-2.59798E-04 6.42389E-04 0.00000E+00
 -1       874-2.73562E-04 6.75387E-04 0.00000E+00
 -1       875-2.34751E-04 7.75605E-04 0.00000E+00
 -1       876-2.23026E-04 7.72155E-04 0.00000E+00
 -1       877-2.39257E-04 7.70048E-04 0.00000E+00
 -1       878-2.28813E-04 7.66840E-04 0.00000E+00
 -1       879-2.12029E-04 7.13859E-04 0.00000E+00
 -1       880-2.23947E-04 7.00446E-04 0.00000E+00
 -1       881-2.22554E-04 7.29744E-04 0.00000E+00
 -1       882-2.36966E-04 7.36103E-04 0.00000E+00
 -1       883-2.30358E-04 7.22820E-04 0.00000E+00
 -1       884-2.43618E-04 7.19920E-04 0.00000E+00
 -1       885-2.55572E-06-1.85210E-06 0.00000E+00
 -1       886-2.11615E-06-2.04658E-06 0.00000E+00
 -1       887-1.95551E-06-1.69260E-06 0.00000E+00
 -1       888-2.36413E-06-1.52862E-06 0.00000E+00
 -1       889-2.28668E-06-2.36851E-06 0.00000E+00
 -1       890-1.73128E-06-2.29590E-06 0.00000E+00
 -1       891-1.58553E-06-1.84371E-06 0.00000E+00
 -1       892-1.75908E-06-1.28039E-06 0.00000E+00
 -1       893-1.97338E-04 4.98068E-04 0.00000E+00
 -1       894-2.08577E-04 4.89453E-04 0.00000E+00
 -1       895-1.96686E-04 4.74757E-04 0.00000E+00
 -1       896-2.16586E-04 5.12149E-04 0.00000E+00
 -1       897-2.23044E-04 4.85950E-04 0.00000E+00
 -1       898-2.09083E-04 4.59598E-04 0.00000E+00
 -1       899-6.84560E-05 6.02904E-05 0.00000E+00
 -1       900-9.50028E-05 9.47221E-05 0.00000E+00
 -1       901-6.01873E-05 5.94560E-05 0.00000E+00
 -1       902-8.49033E-05 9.34945E-05 0.00000E+00
 -1       903-5.83689E-06 1.92334E-05 0.00000E+00
 -1       904-3.90605E-06 2.68533E-05 0.00000E+00
 -1       905-2.39982E-06 7.92158E-06 0.00000E+00
 -1       906 4.02959E-08 2.01999E-05 0.00000E+00
 -1       907-1.13190E-04 8.58429E-05 0.00000E+00
 -1       908-1.24050E-04 9.42091E-05 0.00000E+00
 -1       909-9.01748E-05 6.51343E-05 0.00000E+00
 -1       910-1.01641E-04 7.45716E-05 0.00000E+00
 -1       911-8.82859E-05 6.27251E-05 0.00000E+00
 -1       912-1.09211E-04 8.03115E-05 0.00000E+00
 -1       913-1.07239E-05 5.66393E-06 0.00000E+00
 -1       914-1.11006E-05 4.96290E-06 0.00000E+00
 -1       915-1.25326E-05 6.24273E-06 0.00000E+00
 -1       916-2.88177E-06-2.42950E-06 0.00000E+00
 -1       917-3.19261E-06-2.03511E-06 0.00000E+00
 -1       918-2.60302E-06-2.19059E-06 0.00000E+00
 -1       919-4.58654E-05 8.61375E-05 0.00000E+00
 -1       920-4.54393E-05 7.29303E-05 0.00000E+00
 -1       921-5.51867E-05 9.03878E-05 0.00000E+00
 -1       922-2.75870E-04 7.60684E-04 0.00000E+00
 -1       923-2.77374E-04 7.69976E-04 0.00000E+00
 -1       924-2.65678E-04 7.64583E-04 0.00000E+00
 -1       925-9.80588E-05 7.69699E-05 0.00000E+00
 -1       926-1.12947E-04 9.00341E-05 0.00000E+00
 -1       927-1.13461E-04 9.45158E-05 0.00000E+00
 -1       928-2.07370E-06-1.25883E-06 0.00000E+00
 -1       929-2.39563E-06-1.12000E-06 0.00000E+00
 -1       930-1.92803E-06-9.57337E-07 0.00000E+00
 -1       931-3.47735E-05 2.58857E-05 0.00000E+00
 -1       932-2.88750E-05 2.24321E-05 0.00000E+00
 -1       933-4.21961E-05 3.13700E-05 0.00000E+00
 -1       934-1.52112E-05 2.72000E-06 0.00000E+00
 -1       935-1.51787E-05 3.89141E-06 0.00000E+00
 -1       936-1.39862E-05 2.86963E-06 0.00000E+00
 -1       937-1.47658E-04 1.97661E-04 0.00000E+00
 -1       938-1.48145E-04 1.80925E-04 0.00000E+00
 -1       939-1.59772E-04 2.02891E-04 0.00000E+00
 -1       940-1.61319E-04 2.86294E-04 0.00000E+00
 -1       941-1.46060E-04 2.90588E-04 0.00000E+00
 -1       942-1.48190E-04 2.66590E-04 0.00000E+00
 -1       943-3.07647E-05 1.08315E-04 0.00000E+00
 -1       944-2.90987E-05 1.15545E-04 0.00000E+00
 -1       945-2.54659E-05 1.02557E-04 0.00000E+00
 -1       946-2.12210E-05 7.17350E-05 0.00000E+00
 -1       947-2.17270E-05 6.31309E-05 0.00000E+00
 -1       948-2.54645E-05 7.22039E-05 0.00000E+00
 -1       949-7.43449E-05 5.23903E-05 0.00000E+00
 -1       950-8.45462E-05 5.99644E-05 0.00000E+00
 -1       951-6.90922E-05 4.86313E-05 0.00000E+00
 -1       952-2.42776E-04 7.33037E-04 0.00000E+00
 -1       953-2.52896E-04 7.35577E-04 0.00000E+00
 -1       954-2.46496E-04 7.42145E-04 0.00000E+00
 -1       955-1.20937E-07-5.50064E-08 0.00000E+00
 -1       956-2.39056E-07-1.38316E-07 0.00000E+00
 -1       957-1.18747E-07-8.23042E-08 0.00000E+00
 -1       958-3.65079E-07-1.70222E-07 0.00000E+00
 -1       959-3.92270E-07-2.73566E-07 0.00000E+00
 -1       960-2.87220E-07-3.22685E-07 0.00000E+00
 -1       961-2.17207E-07-1.78114E-07 0.00000E+00
 -1       962-9.23662E-08-9.90468E-08 0.00000E+00
 -3
    1PSTEP                         2           1           1          
  100CL  101 1.000000000         960                     0    1           1
 -4  STRESSR     6    1
 -5  SXX         1    4    1    1
 -5  SYY         1    4    2    2
 -5  SZZ         1    4    3    3
 -5  SXY         1    4    1    2
 -5  SYZ         1    4    2    3
 -5  SZX         1    4    3    1
 -1         1 7.89292E+05 1.96843E+05 1.97227E+05 5.92261E+05-6.58892E-14 5.19879E-14
 -1         2-3.70375E+05-4.03313E+05-1.54738E+05 1.52071E+04-1.45651E-12 1.71618E-14
 -1         3 1.72791E+04-2.36697E+05-4.38836E+04 1.74647E+05-1.50357E-13 2.17852E-13
 -1         4-1.44074E+05-1.06750E+05-5.01647E+04-1.85554E+03 6.05359E-13-2.39982E-12
 -1         5-1.01426E+05-1.01213E+05-4.05278E+04 3.08166E+01-1.88563E-11 6.65847E-12
 -1         6-1.02254E+05-1.01986E+05-4.08481E+04 6.59232E+02 1.07622E-11 5.74323E-12
 -1         8-4.80175E+05-3.70467E+05-1.70128E+05 3.15952E+05-1.45517E-12 4.22238E-12
 -1        10-1.00702E+05-1.03875E+05-4.09155E+04 2.61180E+01-3.23766E-14 3.95475E-13
 -1        11-1.08147E+05-1.03443E+05-4.23179E+04 3.12211E+03-4.87442E-14 1.29410E-15
 -1        12-1.68803E+04-3.13145E+04-9.63897E+03-6.68849E+04 1.37912E-14-4.86934E-15
 -1        13 4.40918E+05-3.47356E+05 1.87124E+04 2.02357E+05-6.22960E-14 2.40144E-13
 -1        14-7.26106E+04-4.01481E+05-9.48183E+04 1.91784E+04 2.33610E-12-3.85753E-14
 -1        15-2.82445E+05-4.30577E+05-1.42604E+05 1.12455E+04 1.64142E-13-2.62608E-13
 -1        16 7.23275E+05-3.37987E+04 1.37895E+05 4.37261E+05 2.66898E-13-2.55423E-13
 -1        17 9.26875E+04-4.28842E+05-6.72308E+04 7.35798E+04-5.74490E-13 4.50627E-14
 -1        18-1.90675E+05-4.24775E+05-1.23090E+05 1.73147E+04 9.70308E-13 5.81491E-13
 -1        19-3.43524E+05-4.27504E+05-1.54205E+05 1.37848E+04-1.55672E-13 1.22388E-13
 -1        20-2.51344E+05-2.95531E+05-1.09375E+05 1.21828E+05 3.08090E-12-9.33692E-14
 -1        21-1.95049E+05-2.49930E+05-8.89957E+04 1.55820E+05 4.45109E-12-4.30297E-13
 -1        22-1.81533E+05-1.98227E+05-7.59519E+04 1.78928E+05-3.99536E-12 1.50666E-13
 -1        23-3.15639E+05-3.48187E+05-1.32765E+05 7.12983E+04 2.12479E-12 3.10735E-15
 -1        24-2.19159E+05-2.66908E+05-9.72133E+04 1.41426E+05 2.50872E-12 2.61027E-14
 -1        25-1.91507E+05-2.36482E+05-8.55978E+04 1.65024E+05-6.99242E-14-1.17692E-12
 -1        26-8.33586E+04-1.95948E+05-5.58614E+04 2.14591E+05 4.45187E-13 1.22100E-12
 -1        27-2.33881E+05-3.55979E+05-1.17972E+05-1.13781E+04 5.47334E-12-1.34446E-12
 -1        28-2.69754E+05-3.32186E+05-1.20388E+05-2.44017E+01-5.66771E-12 3.70003E-14
 -1        29-2.72676E+05-3.14310E+05-1.17397E+05-4.06756E+02-1.64674E-12-1.40646E-12
 -1        30-2.72435E+05-2.96786E+05-1.13844E+05-1.98580E+02-5.16004E-12 1.32044E-12
 -1        31-2.70428E+05-2.80295E+05-1.10145E+05-9.55446E+01-9.73472E-12 2.03228E-12
 -1        32-2.70463E+05-2.63804E+05-1.06853E+05 8.09746E+01-4.15999E-12-1.65465E-12
 -1        33-2.72940E+05-2.47528E+05-1.04094E+05 6.37029E+01 4.45953E-12 2.30257E-12
 -1        34-2.77599E+05-2.31403E+05-1.01800E+05-1.61691E+02-7.66926E-13 3.55751E-12
 -1        35-2.82792E+05-2.15439E+05-9.96461E+04-6.45450E+02-3.89097E-12 3.49345E-12
 -1        36-2.85526E+05-1.99485E+05-9.70022E+04-7.00984E+02-1.65413E-12 4.07598E-12
 -1        37-2.84090E+05-1.83695E+05-9.35571E+04-7.52619E+02 3.22733E-12-1.34850E-12
 -1        38-2.75264E+05-1.67380E+05-8.85288E+04-1.22779E+03 3.09362E-12 5.54276E-13
 -1        39-2.56946E+05-1.51455E+05-8.16801E+04-1.73680E+03-5.15701E-13-1.99227E-12
 -1        40-2.27311E+05-1.34492E+05-7.23607E+04-1.46103E+03 4.90664E-12 3.26557E-12
 -1        41-1.87421E+05-1.16880E+05-6.08602E+04-1.69513E+03 6.35647E-12 5.62455E-12
 -1        42-9.85110E+04-3.38870E+05-8.74763E+04 4.23792E+04-6.43704E-14 1.42458E-12
 -1        43-2.54398E+05-3.48453E+05-1.20570E+05-4.88878E+03-6.68419E-12 7.58734E-13
 -1        44-2.67338E+05-3.21069E+05-1.17681E+05 1.14447E+03 3.85190E-12 2.05672E-12
 -1        45-2.72607E+05-3.05504E+05-1.15622E+05-9.02093E+01-4.12732E-12 1.57447E-12
 -1        46-2.71168E+05-2.88399E+05-1.11913E+05 2.58268E+01 1.55037E-11-4.13319E-12
 -1        47-2.70323E+05-2.72010E+05-1.08467E+05-5.64134E+01 1.97884E-11 5.85280E-13
 -1        48-2.71607E+05-2.55710E+05-1.05463E+05-9.34261E+01 3.26402E-11-2.47113E-12
 -1        49-2.75203E+05-2.39509E+05-1.02942E+05-3.28536E+02-3.99770E-12-1.41802E-12
 -1        50-2.79982E+05-2.23397E+05-1.00676E+05-6.73897E+02 2.59528E-11 2.64099E-12
 -1        51-2.84229E+05-2.07443E+05-9.83344E+04-8.63441E+02 4.26112E-11 2.90514E-12
 -1        52-2.84919E+05-1.91473E+05-9.52784E+04-1.21722E+03 1.79376E-11 6.25278E-12
 -1        53-2.79654E+05-1.75295E+05-9.09898E+04-1.33134E+03-2.61573E-11-7.25815E-12
 -1        54-2.66134E+05-1.59207E+05-8.50682E+04-1.67879E+03-5.69402E-12-8.47050E-12
 -1        55-2.42341E+05-1.42583E+05-7.69848E+04-1.58715E+03-7.88093E-12 9.90175E-12
 -1        56-2.08048E+05-1.26629E+05-6.69354E+04-1.64050E+03-3.40191E-11 4.86751E-13
 -1        57-1.64680E+05-1.09844E+05-5.49047E+04-1.00670E+03-9.59222E-12-4.87402E-12
 -1        58-1.30788E+05-1.00786E+05-4.63147E+04-1.69469E+00 5.87752E-12 4.71790E-12
 -1        59-1.20758E+05-1.01341E+05-4.44198E+04-7.84566E+01-3.38564E-12 5.53719E-13
 -1        60-1.11369E+05-1.01272E+05-4.25282E+04 8.01826E+01-1.17178E-11 6.55979E-12
 -1        61-1.37067E+05-1.02418E+05-4.78970E+04-1.86653E+03 1.54358E-11-1.92433E-12
 -1        62-1.25584E+05-1.00883E+05-4.52936E+04-1.36251E+02 1.97648E-11-3.88595E-12
 -1        63-1.16160E+05-1.01333E+05-4.34987E+04-1.11469E+02 2.09977E-11 8.71819E-12
 -1        64-1.06452E+05-1.01369E+05-4.15641E+04 6.55468E+01 1.36231E-11-1.06925E-11
 -1        65-1.01409E+05-1.01092E+05-4.05002E+04 3.86672E+01-3.28063E-11-5.36537E-12
 -1        66-1.01405E+05-1.02952E+05-4.08714E+04-1.46087E+02-1.42022E-11 5.01706E-12
 -1        67-1.02062E+05-1.04985E+05-4.14093E+04 1.08138E+02 3.09979E-11 7.69603E-12
 -1        68-1.01276E+05-1.01100E+05-4.04752E+04 2.98051E+01-4.19249E-12-6.47440E-12
 -1        69-1.01283E+05-1.01938E+05-4.06441E+04-9.09266E+01-2.05814E-11-1.24772E-11
 -1        70-1.01270E+05-1.04058E+05-4.10655E+04-1.20062E+01 3.09834E-11 1.77086E-12
 -1        71-1.00694E+05-1.03164E+05-4.07715E+04 1.88066E+02 1.19708E-11-1.11213E-11
 -1        72-1.33462E+05-1.02498E+05-4.71921E+04 5.91138E+03-3.92622E-12 7.72871E-12
 -1        73-1.56200E+05-1.03361E+05-5.19121E+04 1.18612E+04 1.46241E-11 3.03598E-12
 -1        74-1.78226E+05-1.05002E+05-5.66457E+04 1.95970E+04-1.69350E-11 2.08020E-13
 -1        75-2.05483E+05-1.09213E+05-6.29392E+04 3.03329E+04-6.58617E-12-2.53314E-13
 -1        76-2.38366E+05-1.15133E+05-7.06998E+04 4.49189E+04 3.55254E-11 6.34554E-12
 -1        77-2.76417E+05-1.23439E+05-7.99711E+04 6.33539E+04-1.17504E-11-6.09780E-12
 -1        78-3.17410E+05-1.34135E+05-9.03088E+04 8.51572E+04 1.80603E-11 6.42718E-12
 -1        79-3.60173E+05-1.48115E+05-1.01658E+05 1.10435E+05-9.68004E-13 1.72280E-12
 -1        80-4.02671E+05-1.65084E+05-1.13551E+05 1.38689E+05-1.71630E-11-1.74659E-12
 -1        81-4.43692E+05-1.85394E+05-1.25817E+05 1.69408E+05 2.16050E-11 1.24465E-11
 -1        82-4.81849E+05-2.09019E+05-1.38173E+05 2.01776E+05 9.84271E-12-3.72122E-12
 -1        83-5.15219E+05-2.35491E+05-1.50142E+05 2.34490E+05 5.84971E-12 1.65851E-12
 -1        84-5.41252E+05-2.63623E+05-1.60975E+05 2.65553E+05 1.34416E-11-8.14871E-14
 -1        85-5.57127E+05-2.91731E+05-1.69772E+05 2.92476E+05-1.59716E-12-3.87313E-12
 -1        86-5.60270E+05-3.17614E+05-1.75577E+05 3.12620E+05 6.59734E-12 1.18867E-12
 -1        87-5.49351E+05-3.38670E+05-1.77604E+05 3.23748E+05-1.47718E-12-2.19065E-13
 -1        88-5.25302E+05-3.53241E+05-1.75709E+05 3.24182E+05-1.22419E-12 4.49644E-12
 -1        89-4.87921E+05-3.58373E+05-1.69259E+05 3.15045E+05 1.85553E-12-8.18914E-13
 -1        90-4.28385E+05-3.40497E+05-1.53776E+05 2.79228E+05 6.94645E-13-5.50166E-12
 -1        91-1.18362E+05-1.02344E+05-4.41413E+04 3.55285E+03-3.65897E-11-6.20085E-12
 -1        92-1.44888E+05-1.03119E+05-4.96013E+04 9.14304E+03-1.62575E-11-7.44105E-12
 -1        93-1.67112E+05-1.05039E+05-5.44303E+04 1.58135E+04 7.17187E-12 3.23934E-13
 -1        94-1.91867E+05-1.07345E+05-5.98424E+04 2.48697E+04-7.47587E-12 2.21960E-12
 -1        95-2.21859E+05-1.11825E+05-6.67369E+04 3.73429E+04-1.27288E-11-2.48035E-11
 -1        96-2.57487E+05-1.18652E+05-7.52277E+04 5.37342E+04 4.37371E-12 4.77818E-12
 -1        97-2.97164E+05-1.28365E+05-8.51058E+04 7.38884E+04 1.03346E-11-3.86315E-12
 -1        98-3.39424E+05-1.40581E+05-9.60009E+04 9.74136E+04 2.28332E-11 1.12062E-11
 -1        99-3.82123E+05-1.55829E+05-1.07590E+05 1.24167E+05 3.36333E-11-2.61107E-12
 -1       100-4.23957E+05-1.74350E+05-1.19661E+05 1.53705E+05 2.11783E-11-1.48217E-12
 -1       101-4.63592E+05-1.96258E+05-1.31970E+05 1.85334E+05 3.11024E-11-4.34231E-12
 -1       102-4.99403E+05-2.21318E+05-1.44144E+05 2.18003E+05-6.23965E-12 4.44062E-12
 -1       103-5.29158E+05-2.48763E+05-1.55584E+05 2.50054E+05 2.84969E-13 7.19954E-12
 -1       104-5.50108E+05-2.77064E+05-1.65434E+05 2.79233E+05 8.50108E-12 9.61798E-13
 -1       105-5.59405E+05-3.04232E+05-1.72727E+05 3.02962E+05-4.49866E-12 1.01832E-11
 -1       106-5.55178E+05-3.28059E+05-1.76647E+05 3.18772E+05 2.48637E-12-4.82995E-12
 -1       107-5.37141E+05-3.46246E+05-1.76677E+05 3.24624E+05 1.52838E-12 3.49307E-12
 -1       108-5.06449E+05-3.56763E+05-1.72642E+05 3.20301E+05-6.96924E-12-1.60417E-13
 -1       109-4.65941E+05-3.58854E+05-1.64959E+05 3.03261E+05-5.62863E-12-5.53015E-12
 -1       110-4.32029E+05-3.30123E+05-1.52430E+05 2.81978E+05-4.13305E-13 2.98150E-12
 -1       111-3.37559E+05-4.47719E+05-1.57056E+05 2.86881E+05-1.42064E-12 5.33453E-13
 -1       112-2.31773E+05-3.96493E+05-1.25653E+05 1.99244E+05-1.30590E-12-2.41688E-13
 -1       113-1.62384E+05-3.41524E+05-1.00782E+05 1.17607E+05 2.03182E-14 1.75129E-12
 -1       114-1.21266E+05-2.65427E+05-7.73385E+04 5.69377E+04-1.16430E-13 1.17166E-14
 -1       115-1.05534E+05-1.97411E+05-6.05890E+04 2.03405E+04 7.05350E-13 4.22671E-13
 -1       116-1.01152E+05-1.49416E+05-5.01135E+04 3.48535E+03-1.23359E-13-2.18840E-13
 -1       117-1.00564E+05-1.22748E+05-4.46623E+04-2.04415E+03 2.47127E-13 7.25271E-13
 -1       118-4.42670E+05-4.27186E+05-1.73971E+05 3.16912E+05-9.31033E-15 6.09783E-12
 -1       119-2.63131E+05-4.25049E+05-1.37636E+05 2.38707E+05 1.16058E-12 1.21054E-12
 -1       120-1.89031E+05-3.79331E+05-1.13672E+05 1.58412E+05-2.80196E-13 1.53827E-12
 -1       121-1.36353E+05-3.06878E+05-8.86462E+04 8.47299E+04 3.58682E-13-1.65231E-12
 -1       122-1.09794E+05-2.31755E+05-6.83099E+04 3.64774E+04-2.32430E-13-1.79413E-12
 -1       123-1.00636E+05-1.72332E+05-5.45937E+04 1.05487E+04 6.10602E-13-2.78943E-13
 -1       124-9.96528E+04-1.35192E+05-4.69689E+04-3.19292E+01 1.01192E-13-3.52485E-13
 -1       125-1.00283E+05-1.12899E+05-4.26362E+04-1.68380E+03-3.25856E-14 2.39204E-13
 -1       126-1.12588E+05-1.12117E+05-4.49409E+04 1.14963E+04-5.64590E-14 1.08086E-13
 -1       127-1.19201E+05-1.18862E+05-4.76126E+04 1.70159E+04 3.12479E-14-2.09736E-13
 -1       128-1.20449E+05-1.20143E+05-4.81184E+04 1.83102E+04-5.56683E-16 8.14904E-15
 -1       129-1.18871E+05-1.18413E+05-4.74567E+04 1.67887E+04-2.18544E-15 2.02159E-13
 -1       130-1.15898E+05-1.15541E+05-4.62878E+04 1.40112E+04 6.56988E-15-1.19777E-14
 -1       131-1.11779E+05-1.11478E+05-4.46514E+04 1.00351E+04-1.65893E-14 1.81563E-13
 -1       132-1.07998E+05-1.07966E+05-4.31927E+04 6.53912E+03-4.85168E-14-2.09668E-14
 -1       133-1.04906E+05-1.04627E+05-4.19066E+04 3.25333E+03-3.01944E-16-5.04030E-15
 -1       134-1.02598E+05-1.01800E+05-4.08796E+04 8.04979E+02 6.16235E-15 5.96991E-14
 -1       135-1.00999E+05-1.01562E+05-4.05121E+04 1.82401E+01 3.88041E-14-5.29930E-14
 -1       136-1.00276E+05-1.01672E+05-4.03896E+04-6.77258E+01 3.81073E-14-2.09727E-14
 -1       137-1.06184E+05-1.08452E+05-4.29272E+04 5.43995E+03 7.69663E-15-4.26839E-14
 -1       138-1.16007E+05-1.16512E+05-4.65036E+04 1.47334E+04 1.47242E-15 7.34793E-13
 -1       139-1.20035E+05-1.19403E+05-4.78877E+04 1.77180E+04 2.48732E-14-5.22400E-13
 -1       140-1.19699E+05-1.19143E+05-4.77684E+04 1.76051E+04 5.41020E-15-2.09311E-13
 -1       141-1.17280E+05-1.16856E+05-4.68273E+04 1.54157E+04 1.36009E-14-9.59206E-14
 -1       142-1.13757E+05-1.13447E+05-4.54408E+04 1.20657E+04-1.81040E-14-6.83051E-14
 -1       143-1.09827E+05-1.09702E+05-4.39058E+04 8.32171E+03-5.71910E-15-1.17126E-13
 -1       144-1.06140E+05-1.06058E+05-4.24397E+04 4.80456E+03 1.24344E-13 2.27004E-13
 -1       145-1.02803E+05-1.03530E+05-4.12666E+04 2.02109E+03 4.46724E-14-1.78104E-14
 -1       146-1.01709E+05-1.01785E+05-4.06988E+04 5.41860E+02 1.19829E-13 9.53974E-14
 -1       147-1.01444E+05-1.02027E+05-4.06941E+04 2.31093E+02 9.11097E-14-7.82492E-15
 -1       148-1.01189E+05-1.00224E+05-4.02826E+04 4.39002E+02 8.49301E-14-8.71011E-15
 -1       149-1.05619E+05-1.11589E+05-4.34417E+04 1.13831E+04 4.97154E-14-6.11744E-15
 -1       150-1.10719E+05-1.08625E+05-4.38687E+04 5.60751E+03 4.18755E-15-1.00083E-14
 -1       151-3.91071E+04-8.26651E+04-2.43544E+04-2.80603E+04 7.17810E-15-5.01766E-16
 -1       152-9.93878E+04-2.49508E+04-2.48677E+04-4.37564E+04 2.15791E-17 1.25957E-15
 -1       153-1.27514E+05-3.19059E+04-3.18841E+04-3.34424E+04-1.06092E-15 1.42135E-16
 -1       154-1.44517E+05-3.61893E+04-3.61413E+04-2.24296E+04 1.44762E-15 1.11010E-15
 -1       155-1.57547E+05-3.92141E+04-3.93521E+04-1.40313E+04 2.23949E-15 5.22230E-15
 -1       156-1.71132E+05-4.27826E+04-4.27830E+04-5.20834E+03-1.35940E-15-1.75152E-14
 -1       157-1.82268E+05-4.55678E+04-4.55672E+04 1.84795E+03 1.07444E-15 1.17439E-14
 -1       158-1.95164E+05-4.87907E+04-4.87909E+04 1.01195E+04-2.67385E-15-1.19672E-14
 -1       159-2.05966E+05-5.14921E+04-5.14917E+04 1.76152E+04 4.13782E-15 3.94002E-15
 -1       160-2.19171E+05-5.47952E+04-5.47933E+04 2.79974E+04 4.98283E-15 1.68951E-14
 -1       161-2.31715E+05-5.79267E+04-5.79283E+04 3.90685E+04 3.97992E-15-3.71867E-14
 -1       162-2.51146E+05-6.27969E+04-6.27885E+04 5.63352E+04-9.57097E-15 3.09886E-14
 -1       163-2.75792E+05-6.89419E+04-6.89467E+04 7.59712E+04 3.99798E-14-7.35625E-14
 -1       164-3.22184E+05-8.05396E+04-8.05447E+04 1.05211E+05-1.87163E-14-6.71860E-15
 -1       165-3.82329E+05-9.55895E+04-9.55836E+04 1.33218E+05-1.43155E-15-4.33412E-14
 -1       166-4.78166E+05-1.19650E+05-1.19563E+05 1.62165E+05-9.79281E-14 2.12932E-14
 -1       167-5.64734E+05-1.39221E+05-1.40791E+05 1.73197E+05-4.72549E-14-6.51399E-14
 -1       168-6.44985E+05-1.61322E+05-1.61261E+05 1.76416E+05 1.22848E-14 6.08056E-14
 -1       169-6.80168E+05-1.70209E+05-1.70075E+05 1.72549E+05-5.21384E-15 2.56189E-13
 -1       170-6.73523E+05-1.68603E+05-1.68425E+05 1.66908E+05 6.08835E-14-2.81072E-13
 -1       171-6.15274E+05-1.50582E+05-1.53171E+05 1.65978E+05-2.53982E-13-2.87258E-13
 -1       172-5.21411E+05-1.30447E+05-1.30372E+05 1.76491E+05 1.01434E-13-1.60783E-14
 -1       173-4.02134E+05-9.82841E+04-1.00084E+05 2.22925E+05 1.09213E-13 3.75377E-14
 -1       174-3.24526E+05-8.10321E+04-8.11115E+04 2.63616E+05-1.52739E-13-1.72194E-14
 -1       175-7.65296E+04-1.89502E+04-1.90960E+04-5.20162E+04-4.13938E-15 1.56553E-15
 -1       176-1.14835E+05-2.87241E+04-2.87118E+04-3.84865E+04 5.22581E-16-7.33250E-16
 -1       177-1.36464E+05-3.41338E+04-3.41195E+04-2.78637E+04-6.12145E-16 3.98074E-16
 -1       178-1.53042E+05-3.81788E+04-3.82441E+04-1.70994E+04 6.42647E-16-7.35181E-16
 -1       179-1.64601E+05-4.11491E+04-4.11501E+04-9.43372E+03-7.13812E-16 3.11981E-15
 -1       180-1.76994E+05-4.42489E+04-4.42486E+04-1.52015E+03-3.09500E-16 1.04867E-14
 -1       181-1.89103E+05-4.72764E+04-4.72759E+04 6.12632E+03 5.04585E-16-4.58433E-15
 -1       182-2.00853E+05-5.02133E+04-5.02132E+04 1.38995E+04 1.15428E-15 2.46936E-14
 -1       183-2.12875E+05-5.32183E+04-5.32187E+04 2.28052E+04-4.90208E-15-3.53937E-15
 -1       184-2.25518E+05-5.63811E+04-5.63798E+04 3.34317E+04 3.64843E-15 2.20096E-16
 -1       185-2.41301E+05-6.03027E+04-6.03207E+04 4.76841E+04-1.36757E-14 2.05535E-14
 -1       186-2.62706E+05-6.56617E+04-6.56735E+04 6.60508E+04-8.92258E-15 8.84088E-14
 -1       187-2.97230E+05-7.42863E+04-7.43032E+04 9.06198E+04-2.16467E-14-2.09541E-14
 -1       188-3.50358E+05-8.75861E+04-8.75889E+04 1.19617E+05 4.07018E-14 4.55028E-14
 -1       189-4.29714E+05-1.07451E+05-1.07433E+05 1.48788E+05 8.67852E-14-6.38175E-14
 -1       190-5.24000E+05-1.31212E+05-1.31042E+05 1.69413E+05 4.75909E-14-3.60482E-14
 -1       191-6.09611E+05-1.52536E+05-1.52429E+05 1.74968E+05-4.86167E-14 1.29214E-13
 -1       192-6.67554E+05-1.66965E+05-1.66904E+05 1.74558E+05-6.45672E-14-1.97729E-14
 -1       193-6.81464E+05-1.70641E+05-1.70421E+05 1.69483E+05 1.16279E-13-4.26050E-14
 -1       194-6.46564E+05-1.61824E+05-1.61678E+05 1.66220E+05 6.89538E-15-6.61475E-14
 -1       195-5.74510E+05-1.43946E+05-1.43691E+05 1.68211E+05-1.81447E-13 1.64701E-13
 -1       196-4.62911E+05-1.15851E+05-1.15752E+05 1.96610E+05-2.40758E-13-7.78951E-14
 -1       197-3.80841E+05-9.64534E+04-9.54589E+04 2.38051E+05 2.20877E-13 3.56259E-14
 -1       198-6.87321E+04-1.74316E+04-1.72327E+04 3.68173E+05 5.50654E-15 1.35901E-14
 -1       199-2.95997E+05-2.95573E+05-1.18314E+05 9.90317E+04 6.38580E-13-1.00491E-12
 -1       200-4.74895E+05-2.83310E+05-1.51641E+05 2.09574E+05 3.39755E-13-7.81339E-12
 -1       201-3.71455E+05-2.40218E+05-1.22335E+05 1.39547E+05-5.13698E-12-3.16314E-12
 -1       202-1.46352E+05-1.02816E+05-4.98335E+04 1.37399E+04 4.14905E-14-6.79190E-14
 -1       203-5.80799E+05-1.93139E+05-1.54788E+05 1.80810E+05-1.92935E-13 2.66642E-12
 -1       204-1.26969E+05-8.76906E+04-4.29319E+04-2.01830E+03 4.32007E-16 3.97414E-14
 -1       205-1.14713E+05-9.09549E+04-4.11336E+04-5.18221E+03-3.72851E-14 4.98117E-14
 -1       206-2.85309E+05-1.81189E+05-9.32996E+04 6.13033E+04 5.16451E-12 2.12718E-12
 -1       207-4.69624E+05-2.95648E+05-1.53054E+05 2.13822E+05 1.20115E-12 8.77664E-13
 -1       208-1.69529E+05-1.12699E+05-5.64455E+04-2.24972E+02 8.70963E-12 5.47337E-12
 -1       209-2.73484E+05-1.82251E+05-9.11470E+04 1.14603E+05-2.24791E-13-6.83586E-13
 -1       210-1.82502E+05-1.01894E+05-5.68794E+04 3.24435E+04 4.93318E-15-2.20036E-14
 -1       211-3.19137E+05-2.67615E+05-1.17350E+05 8.22717E+04 3.88502E-12-2.66246E-13
 -1       212-1.94552E+05-2.83855E+05-9.56813E+04 2.07678E+05-1.99050E-13-1.37723E-13
 -1       213-1.60454E+05-7.26926E+04-4.66293E+04 4.10867E+03 1.79966E-16 1.92715E-14
 -1       214-1.38923E+05-1.20441E+05-5.18728E+04 1.74725E+04-3.96249E-14 1.12144E-13
 -1       215-2.71657E+05-2.26952E+05-9.97218E+04 1.84342E+05 1.35231E-12 1.64339E-13
 -1       216-2.02437E+05-1.24919E+05-6.54713E+04 8.96809E+03 4.21205E-12 1.80720E-12
 -1       217-2.01371E+05-2.63402E+05-9.29545E+04 1.68878E+05-2.59572E-12-1.92680E-13
 -1       218-5.32085E+05-2.63446E+05-1.59106E+05 2.26028E+05 3.73029E-13-1.97993E-12
 -1       219-1.42121E+05-1.05446E+05-4.95134E+04-2.32426E+03-1.03913E-11 9.92223E-13
 -1       220-1.22088E+05-1.02611E+05-4.49397E+04-9.75958E+02-1.91014E-11-1.41555E-12
 -1       221-1.74729E+05-8.16579E+04-5.12774E+04 1.65538E+04 1.90773E-15 6.20622E-14
 -1       222-1.37038E+05-7.32686E+04-4.20613E+04-7.82560E+03 1.18554E-14-4.41045E-14
 -1       223-2.17188E+05-2.14214E+05-8.62805E+04 2.77116E+05 6.13905E-13 8.98042E-14
 -1       224-1.40093E+05-9.30310E+04-4.66249E+04 6.84573E+03-1.62915E-14-2.73504E-14
 -1       225-1.83064E+05-1.38876E+05-6.43880E+04 5.05051E+04 2.17365E-13-1.32911E-13
 -1       226-1.29913E+05-1.04504E+05-4.68835E+04-1.25845E+03 1.44051E-11 3.35890E-12
 -1       227-5.29205E+05-2.02025E+05-1.46246E+05 1.76316E+05 1.03340E-12 6.46355E-13
 -1       228-1.13027E+05-7.99890E+04-3.86033E+04-1.72975E+04 5.09936E-15 6.86779E-15
 -1       229-1.20659E+05-5.12966E+04-3.43911E+04-3.04360E+04-1.57826E-15-7.12233E-15
 -1       230-3.08296E+05-2.91817E+05-1.20023E+05 7.10801E+04 2.01502E-12-2.32401E-12
 -1       231-4.22260E+05-2.71150E+05-1.38682E+05 1.78302E+05-9.96068E-14-3.50917E-12
 -1       232-5.36300E+05-1.89168E+05-1.45094E+05 1.73181E+05 2.26715E-12-6.17764E-14
 -1       233-3.24819E+05-2.01997E+05-1.05363E+05 1.00550E+05-4.20868E-13-2.30084E-12
 -1       234-2.78526E+05-2.17683E+05-9.92418E+04 1.36960E+05-1.05154E-12 2.26020E-13
 -1       235-5.18562E+05-2.29919E+05-1.49696E+05 1.85826E+05-4.78086E-13-3.28761E-12
 -1       236-5.19888E+05-2.78826E+05-1.59743E+05 2.27340E+05 2.50416E-12 1.16478E-12
 -1       237-2.48818E+05-1.49781E+05-7.97198E+04 3.55096E+04 1.70503E-11 5.79041E-13
 -1       238-3.01049E+05-2.27769E+05-1.05764E+05 6.33013E+04-8.47864E-13-2.39754E-14
 -1       239-4.22126E+05-2.02596E+05-1.24944E+05 1.66133E+05 7.23979E-13 5.93590E-14
 -1       240-4.00178E+05-1.91971E+05-1.18430E+05 1.61233E+05-5.10413E-14 5.24400E-13
 -1       241-4.00731E+05-2.47417E+05-1.29630E+05 1.51793E+05 4.76413E-14 8.40180E-13
 -1       242-3.67001E+05-2.80640E+05-1.29528E+05 1.30859E+05 1.86837E-12 3.47018E-12
 -1       243-2.86159E+05-2.02149E+05-9.76616E+04 4.57488E+04-6.07484E-12 6.05819E-12
 -1       244-4.36957E+05-2.64171E+05-1.40226E+05 1.68898E+05-1.75787E-12-1.81770E-12
 -1       245-1.87320E+05-1.15148E+05-6.04936E+04 4.19348E+04 2.14806E-14 4.63225E-14
 -1       246-1.52097E+05-1.30531E+05-5.65257E+04 2.86069E+04 1.09138E-14 4.02844E-14
 -1       247-1.60168E+05-1.13582E+05-5.47500E+04 2.50182E+04 1.30047E-13-3.07021E-15
 -1       248-1.05610E+05-9.75389E+04-4.06298E+04-2.91104E+03 3.37449E-15-1.78123E-15
 -1       249-2.59176E+05-2.25500E+05-9.69351E+04 1.46472E+05-3.00699E-13-9.46609E-13
 -1       250-3.41873E+05-2.08046E+05-1.09984E+05 1.49904E+05-8.48006E-13 1.51652E-13
 -1       251-3.52764E+05-1.96602E+05-1.09873E+05 1.69626E+05 8.93346E-13 5.24067E-13
 -1       252-1.20718E+05-1.03777E+05-4.48989E+04 2.90440E+02-2.86893E-12 6.23397E-12
 -1       253-1.16122E+05-1.03377E+05-4.38998E+04-1.03907E+03 1.22589E-11-1.75268E-12
 -1       254-5.73611E+05-1.82260E+05-1.51174E+05 1.75575E+05 1.15245E-12 1.57122E-12
 -1       255-5.22692E+05-2.10540E+05-1.46646E+05 1.77340E+05-7.83833E-13-2.02769E-12
 -1       256-5.50175E+05-2.14359E+05-1.52907E+05 1.86253E+05-2.09446E-12-1.85475E-12
 -1       257-1.12718E+05-8.71600E+04-3.99757E+04-1.03689E+04-5.24369E-14-2.12092E-14
 -1       258-1.27201E+05-7.16688E+04-3.97740E+04-1.47287E+04 3.17007E-15 1.36120E-14
 -1       259-1.25118E+05-8.30122E+04-4.16260E+04-6.95279E+03 1.46535E-14 3.75665E-14
 -1       260-2.89856E+05-1.95253E+05-9.70218E+04 5.96869E+04-8.98767E-12-1.09240E-11
 -1       261-2.84446E+05-1.99435E+05-9.67762E+04 3.33189E+04-9.22661E-13 2.39670E-12
 -1       262-5.56935E+05-1.67600E+05-1.44907E+05 1.68711E+05-5.70535E-13 1.43659E-13
 -1       263-4.73856E+05-2.05295E+05-1.35830E+05 1.73146E+05 2.24324E-13 2.30877E-13
 -1       264-4.81434E+05-1.54136E+05-1.27114E+05 1.62045E+05-6.70608E-15 7.70936E-13
 -1       265-1.26669E+05-1.17944E+05-4.89226E+04 1.34106E+04 4.34593E-14-6.86396E-14
 -1       266-1.17903E+05-1.23189E+05-4.82185E+04 9.82045E+03-1.73257E-14-1.05396E-13
 -1       267-3.72006E+05-2.73492E+05-1.29100E+05 1.36237E+05-3.73510E-12-3.42697E-12
 -1       268-4.05042E+05-2.74688E+05-1.35946E+05 1.55109E+05 3.46298E-12 1.29431E-12
 -1       269-4.23427E+05-2.55331E+05-1.35752E+05 1.58954E+05 6.43007E-13-1.38652E-13
 -1       270-3.43805E+05-2.78069E+05-1.24375E+05 1.09866E+05-1.32095E-12 4.26960E-12
 -1       271-3.32886E+05-2.85773E+05-1.23732E+05 1.02353E+05 3.47869E-12 2.72228E-12
 -1       272-3.11163E+05-2.81457E+05-1.18524E+05 7.06227E+04-2.97200E-12 1.91245E-12
 -1       273-1.79947E+05-2.51105E+05-8.62103E+04 1.51444E+05-4.62605E-13 1.76586E-13
 -1       274-1.95781E+05-2.65796E+05-9.23155E+04 1.61498E+05 1.21807E-12-3.53071E-14
 -1       275-2.01411E+05-2.79676E+05-9.62174E+04 1.81953E+05-1.34933E-12 1.50619E-13
 -1       276-2.27923E+05-2.50150E+05-9.56147E+04 1.76500E+05 7.74281E-13 3.58480E-14
 -1       277-2.33294E+05-2.45061E+05-9.56711E+04 2.08713E+05 4.42960E-14 2.28417E-13
 -1       278-3.92813E+05-2.86449E+05-1.35852E+05 1.95817E+05 3.99758E-13 1.03748E-12
 -1       279-4.37990E+05-3.40102E+05-1.55618E+05 2.45947E+05-2.63533E-13-1.01986E-12
 -1       280-1.56251E+05-1.08741E+05-5.29983E+04-2.12476E+03 5.44551E-12-3.50690E-13
 -1       281-1.36042E+05-1.04810E+05-4.81703E+04-1.86524E+03 5.25273E-12-7.13560E-12
 -1       282-1.46532E+05-1.06913E+05-5.06890E+04-1.13832E+03-2.00299E-12-8.40803E-12
 -1       283-1.40322E+05-4.63625E+04-3.73369E+04-2.15333E+04 8.58826E-15 9.09391E-15
 -1       284-1.25789E+05-4.06868E+04-3.32952E+04-3.28648E+04-8.44446E-15 2.29329E-15
 -1       285-1.02943E+05-5.09521E+04-3.07790E+04-4.18418E+04-4.05532E-15-1.29558E-14
 -1       286-1.22190E+05-1.01769E+05-4.47918E+04-4.53746E+02 1.11208E-11 4.88151E-12
 -1       287-1.31458E+05-1.03553E+05-4.70020E+04-1.68417E+03 7.75389E-13 2.27477E-12
 -1       288-1.44894E+05-1.06006E+05-5.01799E+04-2.07288E+03-8.39764E-12-2.41521E-12
 -1       289-1.33084E+05-1.02916E+05-4.72001E+04-1.60756E+03 8.38800E-12-5.44456E-12
 -1       290-4.03518E+05-2.17898E+05-1.24283E+05 1.58339E+05 4.60707E-12-1.08593E-12
 -1       291-4.61648E+05-2.59061E+05-1.44142E+05 2.06251E+05-2.75646E-12 8.15925E-12
 -1       292-3.96105E+05-2.57657E+05-1.30752E+05 1.59286E+05 4.09626E-12-3.74244E-12
 -1       293-4.33502E+05-2.38978E+05-1.34496E+05 1.82849E+05-3.12771E-12 6.76018E-13
 -1       294-2.81666E+05-1.52388E+05-8.68109E+04 6.94323E+04 2.51182E-12 8.45638E-12
 -1       295-3.40377E+05-1.78760E+05-1.03828E+05 1.10290E+05 3.17772E-13-3.05940E-12
 -1       296-3.01822E+05-1.87066E+05-9.77775E+04 8.08140E+04-4.50246E-12-2.91498E-12
 -1       297-3.08446E+05-1.63539E+05-9.43970E+04 8.81186E+04 3.93768E-12 3.03047E-14
 -1       298-5.30122E+05-3.07598E+05-1.67544E+05 2.66414E+05-1.91979E-12 8.92493E-14
 -1       299-5.00353E+05-2.83319E+05-1.56734E+05 2.21082E+05-3.14041E-12-2.14384E-12
 -1       300-5.08460E+05-2.90756E+05-1.59843E+05 2.45088E+05 3.31801E-12 3.70409E-12
 -1       301-5.23937E+05-3.01580E+05-1.65103E+05 2.58881E+05 4.63879E-12 7.42139E-12
 -1       302-2.87216E+05-2.95615E+05-1.16566E+05 3.47957E+04-2.87973E-12 1.79370E-12
 -1       303-2.93523E+05-2.65791E+05-1.11863E+05 4.20299E+04-1.90803E-12-3.02027E-12
 -1       304-2.90419E+05-2.81213E+05-1.14327E+05 3.66179E+04-4.50357E-12-2.55903E-12
 -1       305-2.88767E+05-2.31007E+05-1.03955E+05 3.45014E+04 1.36660E-12 2.92740E-12
 -1       306-3.09374E+05-2.46022E+05-1.11079E+05 7.20000E+04 6.66588E-13 5.22725E-12
 -1       307-2.91088E+05-2.47896E+05-1.07797E+05 3.84861E+04-1.17384E-11-4.56202E-13
 -1       308-2.93085E+05-2.12706E+05-1.01158E+05 5.31868E+04 2.71243E-12-4.61003E-12
 -1       309-2.86953E+05-2.15190E+05-1.00429E+05 3.09166E+04 5.69267E-12 1.21835E-12
 -1       310-4.49165E+05-2.79343E+05-1.45702E+05 1.95637E+05 4.61356E-12-5.93911E-12
 -1       311-4.86985E+05-2.76476E+05-1.52692E+05 2.27234E+05-2.08438E-12-2.67101E-12
 -1       312-3.47975E+05-2.20645E+05-1.13724E+05 1.19942E+05-3.81992E-12 8.69317E-12
 -1       313-3.72328E+05-1.97302E+05-1.13926E+05 1.33857E+05-8.31505E-12-7.86735E-13
 -1       314-5.13109E+05-3.03986E+05-1.63419E+05 2.60877E+05-6.27767E-13 1.45921E-12
 -1       315-5.30850E+05-2.71360E+05-1.60442E+05 2.28366E+05 5.43133E-13-1.64537E-12
 -1       316-5.26066E+05-3.08321E+05-1.66877E+05 2.67289E+05-4.25815E-12-1.70045E-13
 -1       317-3.91925E+05-2.77339E+05-1.33853E+05 1.52515E+05 5.76401E-13 1.82912E-12
 -1       318-4.53303E+05-2.73926E+05-1.45446E+05 1.85370E+05 6.23402E-12-1.20965E-12
 -1       319-4.22504E+05-2.77850E+05-1.40071E+05 1.71210E+05-2.17411E-12-1.18523E-13
 -1       320-2.57049E+05-1.62097E+05-8.38292E+04 1.94720E+04 4.96520E-12 8.82064E-14
 -1       321-2.01260E+05-1.26312E+05-6.55143E+04 1.07631E+03-2.03894E-12-5.99766E-13
 -1       322-2.29629E+05-1.37905E+05-7.35067E+04 2.27521E+04 2.94971E-12 3.40939E-12
 -1       323-2.36896E+05-1.46359E+05-7.66511E+04 1.04684E+04 6.52522E-12 1.71494E-12
 -1       324-3.44693E+05-2.55691E+05-1.20077E+05 1.14925E+05-2.85999E-13 9.74174E-14
 -1       325-3.66560E+05-2.69328E+05-1.27178E+05 1.34188E+05 5.89352E-12 2.36956E-12
 -1       326-5.16996E+05-2.52699E+05-1.53939E+05 2.01569E+05 1.12682E-12-1.59777E-12
 -1       327-5.55066E+05-2.25174E+05-1.56048E+05 1.97949E+05-1.25220E-12-5.82354E-13
 -1       328-5.39693E+05-2.39293E+05-1.55797E+05 2.02249E+05-1.69766E-13 4.00005E-14
 -1       329-1.38903E+05-1.58098E+05-5.94001E+04 3.26063E+04-3.19081E-13-1.45301E-13
 -1       330-2.19267E+05-1.62403E+05-7.63339E+04 8.11386E+04 6.06912E-14 5.25719E-13
 -1       331-2.04616E+05-2.25350E+05-8.59933E+04 9.92576E+04 2.86467E-14-1.43546E-13
 -1       332-1.63476E+05-1.88954E+05-7.04861E+04 6.13327E+04 4.44306E-13-1.14555E-13
 -1       333-1.91637E+05-2.55265E+05-8.93804E+04 2.49871E+05-3.89537E-13-1.47542E-13
 -1       334-7.24676E+04-2.88637E+05-7.22210E+04 2.86689E+05 9.43561E-13 1.17150E-14
 -1       335-1.84531E+05-3.57903E+05-1.08487E+05 1.54843E+05-7.75124E-13 1.83162E-13
 -1       336-1.42048E+05-3.54740E+05-9.93576E+04 2.06823E+05-5.00798E-13 6.19597E-14
 -1       337-1.44464E+05-1.11665E+05-5.12258E+04 1.65631E+04 7.29328E-15 7.78199E-14
 -1       338-1.59597E+05-9.33740E+04-5.05941E+04 1.48507E+04-1.89325E-15-4.58578E-14
 -1       339-1.79290E+05-9.00767E+04-5.38734E+04 2.38580E+04-1.34271E-14 3.95996E-14
 -1       340-1.60544E+05-1.02898E+05-5.26883E+04 2.00419E+04 4.25157E-14 1.43508E-13
 -1       341-5.68955E+05-1.63163E+05-1.46424E+05 1.72236E+05-9.77913E-13-1.11268E-12
 -1       342-6.30387E+05-1.65499E+05-1.59177E+05 1.71478E+05-2.84029E-13-1.10858E-13
 -1       343-6.18324E+05-1.61988E+05-1.56062E+05 1.71526E+05-8.05088E-13-2.20387E-13
 -1       344-4.78371E+05-2.48021E+05-1.45279E+05 1.80191E+05 1.34716E-12-9.03284E-13
 -1       345-4.86865E+05-2.65285E+05-1.50430E+05 1.96126E+05-1.19720E-12 3.70485E-12
 -1       346-3.33448E+05-1.77597E+05-1.02209E+05 2.17356E+05 2.43370E-13-5.40268E-13
 -1       347-4.88715E+05-1.63123E+05-1.30368E+05 1.73581E+05 1.07542E-12-9.11357E-13
 -1       348-4.27774E+05-1.63763E+05-1.18307E+05 1.86179E+05-6.29505E-13-3.14865E-13
 -1       349-3.45560E+05-1.96259E+05-1.08364E+05 1.45699E+05 1.62682E-13-2.89418E-13
 -1       350-2.72559E+05-2.63656E+05-1.07243E+05 1.47945E+05 9.12581E-13 2.83118E-13
 -1       351-2.64774E+05-1.61698E+05-8.52943E+04 4.73007E+04 1.73510E-12-3.79160E-12
 -1       352-2.72392E+05-1.78447E+05-9.01676E+04 2.77702E+04-8.34893E-12-1.26585E-12
 -1       353-3.04481E+05-2.98195E+05-1.20535E+05 7.96820E+04 3.44874E-13 7.68110E-13
 -1       354-2.65983E+05-3.21267E+05-1.17450E+05 5.27208E+04 8.33737E-12-4.75079E-13
 -1       355-2.81529E+05-3.09529E+05-1.18212E+05 3.99629E+04 5.93382E-12 1.78641E-12
 -1       356-1.24715E+05-1.35185E+05-5.19800E+04 1.53985E+04 1.61638E-13-1.35355E-13
 -1       357-1.44399E+05-9.75137E+04-4.83826E+04 1.06969E+04 1.38446E-14 1.39909E-13
 -1       358-1.50198E+05-8.36108E+04-4.67618E+04 5.55966E+03-2.71557E-15-4.86856E-14
 -1       359-1.68592E+05-7.61674E+04-4.89518E+04 1.01899E+04 3.32488E-15 9.33975E-14
 -1       360-1.55933E+05-8.76590E+04-4.87184E+04 1.02878E+04 2.46311E-15-9.95793E-14
 -1       361-2.30607E+05-1.27899E+05-7.17011E+04 3.54281E+04 1.04018E-12-1.40391E-11
 -1       362-2.54736E+05-1.38730E+05-7.86933E+04 5.10323E+04-1.20040E-12-2.73508E-12
 -1       363-2.87629E+05-2.61815E+05-1.09889E+05 1.29777E+05 2.44359E-12-1.24990E-12
 -1       364-3.42570E+05-2.67844E+05-1.22083E+05 1.30092E+05-3.62590E-13 2.03817E-12
 -1       365-4.07598E+05-2.12848E+05-1.24089E+05 1.57562E+05 1.16067E-12-8.32596E-13
 -1       366-3.47612E+05-2.35373E+05-1.16597E+05 1.45468E+05 2.56250E-12-1.79553E-12
 -1       367-1.33580E+05-8.20479E+04-4.31255E+04-3.04965E+03-7.72515E-15-5.29395E-14
 -1       368-1.14426E+05-9.62090E+04-4.21270E+04-2.54618E+02 4.10645E-15-1.89548E-14
 -1       369-3.31978E+05-1.41132E+05-9.46219E+04 1.22740E+05 7.77980E-14-1.64312E-13
 -1       370-4.11830E+05-1.51871E+05-1.12740E+05 1.48594E+05-4.46269E-14 9.52899E-14
 -1       371-2.02096E+05-2.17467E+05-8.39127E+04 1.29134E+05-3.58517E-13 1.14699E-12
 -1       372-1.98013E+05-2.47113E+05-8.90252E+04 1.42989E+05 1.82954E-13-6.81826E-13
 -1       373-2.17200E+05-3.06629E+05-1.04766E+05 9.91837E+04-9.21295E-13 5.69238E-13
 -1       374-2.70821E+05-1.53725E+05-8.49093E+04 2.66554E+05 1.73624E-14 1.30812E-13
 -1       375-2.61502E+05-2.00245E+05-9.23494E+04 2.41489E+05-3.61911E-13 8.75666E-14
 -1       376-4.99127E+05-2.45412E+05-1.48908E+05 1.91524E+05-2.29335E-13-1.38942E-12
 -1       377-4.64024E+05-2.40243E+05-1.40854E+05 1.84718E+05-5.92464E-13 2.01518E-15
 -1       378-3.36895E+05-2.84528E+05-1.24285E+05 1.12348E+05 2.44337E-12 1.75368E-12
 -1       379-2.33765E+05-1.10823E+05-6.89176E+04 6.82265E+04 5.28108E-14-3.77839E-14
 -1       380-2.73413E+05-1.26893E+05-8.00614E+04 9.47115E+04 9.86741E-14 6.66173E-14
 -1       381-1.33226E+05-9.00433E+04-4.46539E+04 2.40956E+03 3.94511E-15-1.97649E-14
 -1       382-1.26525E+05-1.01987E+05-4.57024E+04 7.78361E+03 3.82552E-15-1.16124E-13
 -1       383-1.21330E+05-9.88020E+04-4.40264E+04 4.15957E+03-5.42337E-14 1.19834E-13
 -1       384-1.32617E+05-1.09809E+05-4.84852E+04 1.33786E+04-1.04429E-14 9.88810E-15
 -1       385-1.30493E+05-1.05803E+05-4.72592E+04 1.10480E+04 1.78176E-14-2.44794E-13
 -1       386-5.71805E+05-1.98899E+05-1.54141E+05 1.80921E+05 7.53230E-13 1.10751E-12
 -1       387-6.09690E+05-1.66294E+05-1.55197E+05 1.70812E+05 6.07431E-14-3.24462E-13
 -1       388-1.19145E+05-6.63922E+04-3.71075E+04-2.51785E+04 7.13924E-15-3.41677E-14
 -1       389-1.47435E+05-5.76677E+04-4.10205E+04-1.18695E+04-1.00911E-15 1.59667E-14
 -1       390-1.33382E+05-5.91475E+04-3.85059E+04-1.90831E+04-7.83382E-15 1.56798E-14
 -1       391-1.71334E+05-5.97750E+04-4.62219E+04 2.58195E+03 1.96520E-15 3.55572E-14
 -1       392-1.50790E+05-7.10678E+04-4.43715E+04-1.75743E+03-8.56813E-17-1.11242E-13
 -1       393-1.60493E+05-5.78768E+04-4.36739E+04-4.29186E+03 3.05673E-15-2.25218E-14
 -1       394-1.01532E+05-9.61756E+04-3.95415E+04-9.51761E+03-2.53250E-14 2.62486E-14
 -1       395-8.58215E+04-7.98303E+04-3.31304E+04-2.85101E+04-2.13911E-14 9.34860E-15
 -1       396-2.07436E+05-8.21288E+04-5.79129E+04 3.74991E+04-9.38174E-14-7.19418E-15
 -1       397-1.90541E+05-6.72121E+04-5.15507E+04 1.75264E+04 9.61999E-15 2.86942E-14
 -1       398-1.99123E+05-7.35012E+04-5.45248E+04 2.67331E+04-1.45606E-16 7.55198E-14
 -1       399-1.81768E+05-6.29416E+04-4.89420E+04 9.98799E+03 6.56554E-15-2.95858E-14
 -1       400-2.17058E+05-9.46883E+04-6.23493E+04 5.10598E+04-9.10410E-14-1.39449E-13
 -1       401-1.75543E+05-1.11626E+05-5.74338E+04 6.26897E+03 5.99867E-12 2.59800E-13
 -1       402-1.44065E+05-1.05568E+05-4.99266E+04 1.50992E+03 4.89753E-12 1.08651E-11
 -1       403-1.31834E+05-1.14517E+05-4.92704E+04 1.45116E+04 4.07169E-15 3.44610E-13
 -1       404-1.42698E+05-8.12158E+04-4.47829E+04 7.63853E+02 7.62262E-15 5.41339E-14
 -1       405-4.72129E+05-2.13520E+05-1.37130E+05 1.67897E+05 7.15543E-13 3.00954E-13
 -1       406-4.73957E+05-2.32288E+05-1.41249E+05 1.71251E+05-1.04596E-12-4.52797E-13
 -1       407-5.09639E+05-2.73350E+05-1.56598E+05 2.26817E+05-4.89704E-13 1.33561E-12
 -1       408-5.39192E+05-2.34272E+05-1.54693E+05 1.98850E+05-4.29241E-12 2.57574E-12
 -1       409-3.12786E+05-2.18201E+05-1.06198E+05 8.49137E+04-3.05790E-12-2.19541E-12
 -1       410-3.27942E+05-2.36718E+05-1.12932E+05 9.94443E+04 2.35750E-12-1.91365E-12
 -1       411-1.12289E+05-1.02537E+05-4.29653E+04-7.60366E+02-2.97290E-12 5.54856E-12
 -1       412-1.23951E+05-1.03410E+05-4.54720E+04-1.34439E+03-4.98072E-13-1.02162E-11
 -1       413-1.97084E+05-3.03251E+05-1.00067E+05 1.51848E+05 8.34239E-13 5.10864E-13
 -1       414-2.05570E+05-1.18772E+05-6.48683E+04 2.07321E+04-9.48161E-13-7.28567E-12
 -1       415-1.11897E+05-1.01694E+05-4.27182E+04-1.74467E+02 1.20998E-12 2.08478E-12
 -1       416-1.73356E+05-1.13671E+05-5.74054E+04-3.02871E+03 1.74501E-11-4.38954E-12
 -1       417-1.03383E+05-9.64028E+04-3.99571E+04-5.51391E+03 3.86144E-14-1.05527E-13
 -1       418-2.98136E+05-2.02592E+05-1.00146E+05 6.96953E+04 3.50239E-12-8.37730E-12
 -1       419-4.88188E+05-1.82694E+05-1.34176E+05 1.67862E+05-1.92664E-12-9.07726E-13
 -1       420-1.14505E+05-8.99745E+04-4.08960E+04 3.67606E+05-1.30616E-13 3.52366E-14
 -1       421-4.81807E+05-3.07490E+05-1.57859E+05 2.63973E+05 1.54849E-12 1.69845E-13
 -1       422-1.66884E+05-1.21285E+05-5.76339E+04 3.25624E+04-1.40251E-13-7.26350E-14
 -1       423-1.05293E+05-9.90705E+04-4.08726E+04-8.45283E+02-8.36045E-14 1.01198E-13
 -1       424-3.14577E+05-2.09971E+05-1.04910E+05 1.53011E+05 1.90522E-12-2.63177E-12
 -1       425-1.12561E+05-1.03710E+05-4.32540E+04-3.22348E+02 1.07934E-11-3.43763E-12
 -1       426-5.49590E+05-2.01562E+05-1.50230E+05 1.79656E+05-1.18171E-13 4.85533E-12
 -1       427-1.21528E+05-7.97775E+04-4.02610E+04-1.16385E+04-7.57632E-15-6.81220E-15
 -1       428-5.07272E+05-1.72518E+05-1.35958E+05 1.69017E+05-3.39721E-13 4.96671E-13
 -1       429-1.18202E+05-1.18070E+05-4.72544E+04 1.07400E+04 1.60187E-14 1.66264E-13
 -1       430-3.97272E+05-2.67923E+05-1.33039E+05 1.49340E+05-1.92384E-12 9.26043E-13
 -1       431-3.28766E+05-2.81969E+05-1.22147E+05 9.47556E+04 1.78454E-12 3.71824E-12
 -1       432-1.65414E+05-2.36303E+05-8.03433E+04 1.69538E+05 3.26567E-12 2.92230E-13
 -1       433-2.17283E+05-2.58709E+05-9.51984E+04 1.91014E+05-1.39138E-12 1.76925E-13
 -1       434-4.23213E+05-3.63672E+05-1.57377E+05 2.42805E+05-2.41451E-13 7.67145E-13
 -1       435-1.45854E+05-1.06767E+05-5.05242E+04-1.79811E+03-1.84578E-11-6.93860E-12
 -1       436-1.37792E+05-4.06250E+04-3.56835E+04-2.53938E+04-6.71253E-16 2.84346E-16
 -1       437-1.10236E+05-3.71823E+04-2.94838E+04-4.04288E+04 1.43755E-16-3.23194E-15
 -1       438-1.21881E+05-1.01592E+05-4.46946E+04-2.69991E+02 4.64990E-12-1.30631E-12
 -1       439-1.27463E+05-1.02201E+05-4.59328E+04-8.97538E+02-3.12917E-11-7.24004E-12
 -1       440-1.32575E+05-1.02106E+05-4.69362E+04-8.52826E+02-4.84961E-13-1.10949E-12
 -1       441-1.22243E+05-1.02294E+05-4.49074E+04-7.67352E+02-5.62300E-12 2.27503E-12
 -1       442-1.26856E+05-1.03013E+05-4.59739E+04-1.33841E+03-2.92624E-13-2.97957E-12
 -1       443-1.32448E+05-1.03153E+05-4.71202E+04-1.59202E+03 1.79320E-11 4.98184E-12
 -1       444-1.36601E+05-1.04534E+05-4.82271E+04-2.01789E+03 7.01981E-12 1.65094E-12
 -1       445-1.43130E+05-1.05346E+05-4.96953E+04-2.17279E+03 3.42542E-12-1.21844E-12
 -1       446-1.38619E+05-1.03838E+05-4.84916E+04-1.83504E+03-4.68174E-11-6.09982E-13
 -1       447-1.44645E+05-1.06800E+05-5.02889E+04-1.95395E+03-7.01918E-12-1.32798E-12
 -1       448-3.87303E+05-2.29222E+05-1.23305E+05 1.48950E+05-2.36728E-12 5.87540E-12
 -1       449-4.18877E+05-2.27670E+05-1.29309E+05 1.70302E+05 7.05372E-12-1.22210E-11
 -1       450-4.14251E+05-2.48179E+05-1.32486E+05 1.70863E+05 1.43732E-13-4.02221E-12
 -1       451-3.84003E+05-2.48457E+05-1.26492E+05 1.49206E+05-8.73858E-12-6.14519E-12
 -1       452-4.23371E+05-2.02019E+05-1.25078E+05 1.64110E+05 1.49659E-12 3.16473E-12
 -1       453-4.56870E+05-2.24101E+05-1.36194E+05 1.92296E+05-1.71214E-12-5.65454E-12
 -1       454-4.86892E+05-2.46932E+05-1.46765E+05 2.19978E+05 7.49193E-13 3.14040E-14
 -1       455-4.47907E+05-2.48268E+05-1.39235E+05 1.94353E+05 1.07707E-11-3.37767E-12
 -1       456-4.40981E+05-2.64493E+05-1.41095E+05 1.91830E+05 5.09080E-14 2.34654E-12
 -1       457-4.09341E+05-2.64033E+05-1.34675E+05 1.68749E+05-7.01572E-13-3.74507E-12
 -1       458-2.83624E+05-1.67326E+05-9.01899E+04 6.59765E+04-4.63420E-12 8.73951E-13
 -1       459-2.95052E+05-1.57487E+05-9.05077E+04 7.84864E+04 1.68069E-11 5.39217E-12
 -1       460-3.06363E+05-1.76126E+05-9.64978E+04 8.50782E+04 2.34109E-12 3.67110E-12
 -1       461-2.92548E+05-1.83411E+05-9.51918E+04 7.07549E+04-1.90053E-11 7.82269E-13
 -1       462-2.80539E+05-1.38763E+05-8.38605E+04 6.71507E+04 1.07259E-11 1.73033E-12
 -1       463-3.14136E+05-1.49787E+05-9.27846E+04 8.73873E+04-1.34861E-11-2.65613E-12
 -1       464-3.50875E+05-1.64086E+05-1.02992E+05 1.10895E+05 1.32513E-12 1.05710E-11
 -1       465-3.24868E+05-1.70681E+05-9.91098E+04 9.89253E+04-5.63322E-12-6.75273E-12
 -1       466-3.33124E+05-1.90885E+05-1.04802E+05 1.05759E+05-6.22737E-12-1.12405E-11
 -1       467-3.13741E+05-1.94069E+05-1.01562E+05 9.05782E+04-4.26128E-12-1.37500E-12
 -1       468-5.38899E+05-3.07596E+05-1.69299E+05 2.84214E+05 2.07214E-12-1.42020E-12
 -1       469-5.16216E+05-2.95666E+05-1.62376E+05 2.52095E+05-7.02612E-12-1.26456E-12
 -1       470-5.29861E+05-2.89770E+05-1.63926E+05 2.67543E+05 3.23974E-12 3.51028E-12
 -1       471-5.36677E+05-3.20808E+05-1.71497E+05 2.93393E+05 6.53460E-12 5.25597E-12
 -1       472-5.26809E+05-3.04280E+05-1.66218E+05 2.62846E+05-5.20756E-12 4.22710E-12
 -1       473-5.22870E+05-2.91403E+05-1.62854E+05 2.45739E+05-6.09677E-13 2.93465E-13
 -1       474-5.09878E+05-2.80900E+05-1.58156E+05 2.24422E+05-4.60015E-12 4.49892E-12
 -1       475-5.10036E+05-2.90790E+05-1.60165E+05 2.38903E+05 6.22611E-12 3.50414E-12
 -1       476-4.87472E+05-2.82958E+05-1.54086E+05 2.15505E+05 4.28400E-13-7.87127E-12
 -1       477-4.89814E+05-2.85637E+05-1.55090E+05 2.26422E+05 9.36755E-12-4.19810E-12
 -1       478-2.96558E+05-2.93420E+05-1.17996E+05 5.33096E+04 4.11291E-14 3.91340E-12
 -1       479-2.88673E+05-2.88338E+05-1.15402E+05 3.58280E+04-5.64446E-12 2.98765E-12
 -1       480-3.00215E+05-2.81393E+05-1.16322E+05 5.38598E+04 1.23944E-12 1.81137E-12
 -1       481-3.09783E+05-2.86962E+05-1.19349E+05 7.07534E+04-1.58866E-12-3.91278E-13
 -1       482-2.78882E+05-2.96030E+05-1.14982E+05 1.72487E+04 5.12243E-12 2.75470E-12
 -1       483-2.80348E+05-2.80649E+05-1.12199E+05 1.82308E+04 3.93283E-12-3.51934E-12
 -1       484-2.82116E+05-2.64783E+05-1.09380E+05 2.10228E+04 3.23012E-13 9.90172E-14
 -1       485-2.92092E+05-2.73555E+05-1.13129E+05 3.93143E+04 6.66853E-12-9.16035E-13
 -1       486-3.05924E+05-2.66519E+05-1.14489E+05 6.22500E+04-1.22681E-11-1.66763E-12
 -1       487-3.15433E+05-2.74972E+05-1.18081E+05 7.64357E+04-1.06554E-11 1.29995E-12
 -1       488-2.82140E+05-2.47684E+05-1.05965E+05 1.92662E+04 6.29368E-13 5.99381E-12
 -1       489-2.92337E+05-2.56994E+05-1.09866E+05 4.00316E+04 7.57708E-12-9.41090E-13
 -1       490-2.83042E+05-2.31137E+05-1.02836E+05 1.72048E+04-7.20907E-12 1.60507E-12
 -1       491-2.89890E+05-2.39404E+05-1.05859E+05 3.62695E+04 9.31212E-12-1.57332E-12
 -1       492-2.94808E+05-2.29343E+05-1.04830E+05 4.88599E+04-5.26865E-12-3.03716E-12
 -1       493-3.05334E+05-2.36744E+05-1.08415E+05 6.74614E+04-7.17267E-13 1.02258E-12
 -1       494-2.99763E+05-2.46918E+05-1.09336E+05 5.52370E+04-5.44101E-12 3.35311E-12
 -1       495-3.14392E+05-2.56966E+05-1.14272E+05 7.71020E+04-8.54610E-12-2.60065E-12
 -1       496-2.84130E+05-2.15187E+05-9.98633E+04 1.52689E+04 1.09902E-11 4.16085E-13
 -1       497-2.87806E+05-2.23092E+05-1.02180E+05 3.23542E+04-2.18556E-12 3.40584E-12
 -1       498-2.83553E+05-1.99128E+05-9.65361E+04 1.60949E+04-1.31579E-11 4.30010E-12
 -1       499-2.85949E+05-2.07594E+05-9.87085E+04 3.15698E+04 2.42355E-12-2.58629E-12
 -1       500-2.84995E+05-2.00994E+05-9.71977E+04 3.90974E+04-3.77883E-12 7.52619E-13
 -1       501-2.90456E+05-2.07452E+05-9.95817E+04 4.94450E+04 2.00642E-12-5.81104E-13
 -1       502-2.89684E+05-2.13872E+05-1.00711E+05 4.19221E+04-3.31742E-12-1.31607E-12
 -1       503-2.96980E+05-2.19905E+05-1.03377E+05 5.80324E+04-7.88685E-12-2.73928E-12
 -1       504-5.11799E+05-2.69158E+05-1.56191E+05 2.45561E+05-4.95512E-13-9.51569E-13
 -1       505-4.74578E+05-2.67067E+05-1.48329E+05 2.16627E+05 5.17824E-12-8.17590E-12
 -1       506-4.97885E+05-2.83024E+05-1.56182E+05 2.36157E+05 8.60911E-12 7.33191E-12
 -1       507-4.61966E+05-2.80907E+05-1.48575E+05 2.02695E+05 3.85477E-13 1.15895E-12
 -1       508-4.66617E+05-2.76818E+05-1.48687E+05 2.10723E+05-4.82068E-13-1.54937E-12
 -1       509-4.35775E+05-2.74788E+05-1.42113E+05 1.87002E+05-9.75446E-12 3.78173E-12
 -1       510-3.87696E+05-1.81718E+05-1.13883E+05 1.36677E+05 5.80162E-13-5.30281E-12
 -1       511-3.56786E+05-1.87359E+05-1.08829E+05 1.21729E+05 1.08979E-11 4.05461E-12
 -1       512-3.88323E+05-2.06841E+05-1.19033E+05 1.45758E+05-2.19301E-11 4.40042E-12
 -1       513-3.59998E+05-2.29820E+05-1.17964E+05 1.29500E+05 1.13902E-11-3.95794E-12
 -1       514-3.60289E+05-2.09328E+05-1.13923E+05 1.27088E+05 3.26730E-12 4.86984E-12
 -1       515-3.36681E+05-2.10661E+05-1.09468E+05 1.10009E+05-9.23844E-12-2.47849E-13
 -1       516-5.22776E+05-3.28269E+05-1.70209E+05 2.94027E+05-1.75004E-13-5.81610E-13
 -1       517-5.27633E+05-3.07976E+05-1.67122E+05 2.67104E+05 1.79131E-12 2.30131E-12
 -1       518-4.99070E+05-3.28909E+05-1.65596E+05 2.86497E+05-9.81721E-13-2.08591E-12
 -1       519-5.19035E+05-3.06710E+05-1.65149E+05 2.64351E+05 4.96181E-13 2.59857E-12
 -1       520-5.20600E+05-2.82294E+05-1.60579E+05 2.42892E+05 2.22360E-12 2.44304E-13
 -1       521-5.30870E+05-2.67713E+05-1.59717E+05 2.27360E+05 3.81442E-12-1.78442E-12
 -1       522-5.26548E+05-2.88118E+05-1.62933E+05 2.46738E+05 4.75036E-13 3.07135E-13
 -1       523-5.24976E+05-2.75150E+05-1.60025E+05 2.28033E+05-3.22110E-12-3.14217E-12
 -1       524-3.79170E+05-2.78383E+05-1.31510E+05 1.41562E+05 8.19400E-12 1.31714E-12
 -1       525-4.07053E+05-2.77256E+05-1.36862E+05 1.61994E+05 1.74455E-11 7.86252E-12
 -1       526-4.13042E+05-2.75271E+05-1.37663E+05 1.62937E+05 1.13152E-12 1.28291E-12
 -1       527-3.84833E+05-2.76837E+05-1.32334E+05 1.43768E+05 1.50423E-12-8.87002E-13
 -1       528-4.06573E+05-2.73697E+05-1.36054E+05 1.65031E+05 7.60199E-12-6.51034E-12
 -1       529-4.34949E+05-2.77658E+05-1.42521E+05 1.82901E+05 1.02839E-13-4.32367E-12
 -1       530-4.62895E+05-2.77597E+05-1.48098E+05 1.96829E+05-6.47206E-12-9.71568E-13
 -1       531-4.37657E+05-2.75581E+05-1.42647E+05 1.78426E+05-4.29344E-12 1.81368E-12
 -1       532-4.44395E+05-2.68283E+05-1.42536E+05 1.76697E+05 8.87273E-12 4.52035E-12
 -1       533-4.20446E+05-2.68890E+05-1.37867E+05 1.62336E+05-4.24617E-13 2.87182E-13
 -1       534-2.51845E+05-1.55815E+05-8.15321E+04 2.75292E+04 1.29053E-11 1.82784E-12
 -1       535-2.47015E+05-1.54001E+05-8.02032E+04 1.48236E+04 1.94740E-12-1.16674E-12
 -1       536-2.32507E+05-1.42257E+05-7.49528E+04 1.66457E+04-1.93465E-11 1.31904E-13
 -1       537-2.39243E+05-1.43647E+05-7.65779E+04 2.89716E+04-8.93691E-12-1.07254E-11
 -1       538-2.64237E+05-1.64378E+05-8.57232E+04 9.15094E+03-3.46060E-12 1.22684E-12
 -1       539-2.44933E+05-1.48471E+05-7.86807E+04 4.38631E+03-1.04739E-11 5.25753E-12
 -1       540-2.12977E+05-1.30101E+05-6.86155E+04-4.49383E+02 2.08629E-12 2.54987E-12
 -1       541-2.19496E+05-1.36446E+05-7.11884E+04 5.60671E+03-1.97711E-12-7.03868E-12
 -1       542-2.01620E+05-1.26061E+05-6.55362E+04 4.94765E+03 7.16213E-12 4.31571E-12
 -1       543-2.16224E+05-1.31489E+05-6.95426E+04 1.56244E+04 1.31600E-11-4.73839E-12
 -1       544-3.31486E+05-2.61430E+05-1.18583E+05 9.86832E+04-1.80597E-11-1.29024E-12
 -1       545-3.55690E+05-2.62328E+05-1.23604E+05 1.24369E+05 5.17061E-13-3.74116E-12
 -1       546-3.54913E+05-2.72901E+05-1.25563E+05 1.22248E+05 8.59634E-12 1.98850E-12
 -1       547-3.30718E+05-2.72439E+05-1.20631E+05 9.61784E+04-6.15062E-12 1.28954E-12
 -1       548-3.57968E+05-2.47881E+05-1.21170E+05 1.27183E+05 9.03018E-12-7.28823E-13
 -1       549-3.81095E+05-2.63244E+05-1.28868E+05 1.46502E+05-2.17100E-12 4.12395E-12
 -1       550-3.79440E+05-2.73667E+05-1.30621E+05 1.43257E+05 6.57822E-12 1.84288E-12
 -1       551-3.54489E+05-2.79342E+05-1.26766E+05 1.21152E+05-2.79249E-12 1.92286E-12
 -1       552-5.16849E+05-2.40419E+05-1.51454E+05 1.93161E+05 2.23980E-12 3.78308E-12
 -1       553-5.27959E+05-2.45948E+05-1.54781E+05 2.01963E+05 1.62799E-12-2.46782E-13
 -1       554-5.43503E+05-2.25437E+05-1.53788E+05 1.93740E+05-1.31636E-12-6.46629E-13
 -1       555-5.33663E+05-2.21767E+05-1.51086E+05 1.86337E+05 1.92698E-12 6.95543E-12
 -1       556-5.16936E+05-2.64483E+05-1.56284E+05 2.13634E+05-1.08883E-12 2.99782E-12
 -1       557-5.33516E+05-2.54000E+05-1.57503E+05 2.14427E+05 1.22459E-12-1.21653E-12
 -1       558-5.41934E+05-2.43358E+05-1.57058E+05 2.10913E+05-5.37249E-13 1.59342E-12
 -1       559-5.46943E+05-2.32640E+05-1.55917E+05 2.00222E+05-1.68038E-12-8.70748E-13
 -1       560-5.66987E+05-2.07785E+05-1.54955E+05 1.88991E+05-2.53734E-13-2.16564E-12
 -1       561-5.64525E+05-2.03146E+05-1.53534E+05 1.84293E+05 5.92330E-13 1.57710E-12
 -1       562-1.35017E+05-1.97202E+05-6.64439E+04 4.23720E+04-6.59977E-14-3.27778E-13
 -1       563-1.81104E+05-2.06788E+05-7.75784E+04 7.95328E+04-5.42437E-13 4.57775E-13
 -1       564-1.63668E+05-2.47221E+05-8.21778E+04 8.02013E+04 8.22802E-14-2.84298E-13
 -1       565-1.20257E+05-1.58015E+05-5.56544E+04 1.85618E+04 2.11842E-13-1.36981E-13
 -1       566-1.48845E+05-1.72955E+05-6.43600E+04 4.64079E+04 5.93526E-13-8.33849E-13
 -1       567-1.62113E+05-1.50416E+05-6.25059E+04 4.21925E+04-3.15250E-13 3.15939E-13
 -1       568-1.98553E+05-1.49710E+05-6.96527E+04 6.52516E+04-9.58683E-14-2.43917E-13
 -1       569-1.92515E+05-1.77466E+05-7.39962E+04 7.16789E+04 1.06313E-13 7.91363E-14
 -1       570-2.43337E+05-1.71718E+05-8.30110E+04 9.75584E+04 4.62490E-14-1.22616E-13
 -1       571-2.39513E+05-2.03393E+05-8.85813E+04 1.07134E+05-3.27374E-13 8.41699E-13
 -1       572-1.97351E+05-2.75957E+05-9.46616E+04 2.27208E+05-4.10461E-14 1.93941E-14
 -1       573-1.63520E+05-2.99691E+05-9.26421E+04 2.30341E+05 3.53254E-13-1.56438E-13
 -1       574-1.72929E+05-3.64046E+05-1.07395E+05 1.78286E+05-1.18955E-12-1.41600E-13
 -1       575-1.81296E+05-3.17095E+05-9.96783E+04 1.85712E+05-8.70658E-14 1.73866E-13
 -1       576-1.94083E+05-2.36185E+05-8.60536E+04 2.64007E+05-9.60125E-13-2.44766E-13
 -1       577-1.57870E+05-2.44414E+05-8.04567E+04 2.78974E+05-3.60733E-13 2.72579E-13
 -1       578-1.13462E+05-3.28481E+05-8.83885E+04 2.43597E+05 1.97501E-12-6.65380E-14
 -1       579-5.70236E+04-3.50939E+05-8.15926E+04 1.74314E+05-3.68666E-13 1.00892E-13
 -1       580-1.60382E+05-3.84046E+05-1.08886E+05 1.14056E+05-1.93172E-12-6.25584E-14
 -1       581-2.39184E+05-3.74162E+05-1.22669E+05 8.39084E+04 1.07125E-12 2.21857E-14
 -1       582-1.71560E+05-1.08062E+05-5.59244E+04 2.88157E+04-1.59441E-14-2.19984E-13
 -1       583-1.60655E+05-1.08063E+05-5.37438E+04 2.27378E+04 6.67726E-14 1.79024E-13
 -1       584-1.69961E+05-9.67567E+04-5.33435E+04 2.19504E+04 2.51729E-14-6.80690E-14
 -1       585-1.80952E+05-9.58545E+04-5.53612E+04 2.81963E+04 3.21598E-14-1.02749E-13
 -1       586-1.49575E+05-1.17520E+05-5.34191E+04 2.13143E+04 1.63257E-13 2.62384E-13
 -1       587-1.42182E+05-1.16077E+05-5.16518E+04 1.71839E+04-3.67026E-14 2.01936E-13
 -1       588-1.52296E+05-1.07574E+05-5.19740E+04 1.82349E+04-6.59653E-14-7.28560E-14
 -1       589-1.45711E+05-1.07062E+05-5.05544E+04 1.52546E+04-3.35409E-14-1.34138E-13
 -1       590-1.52780E+05-9.81675E+04-5.01895E+04 1.42471E+04-3.89334E-15 1.33566E-13
 -1       591-1.60480E+05-9.80316E+04-5.17023E+04 1.75949E+04 2.82524E-14-9.06464E-14
 -1       592-1.67198E+05-8.76494E+04-5.09696E+04 1.56925E+04 5.71163E-15 1.66004E-13
 -1       593-1.77321E+05-8.58793E+04-5.26400E+04 2.02797E+04-1.56546E-14 3.09141E-14
 -1       594-5.90667E+05-1.53924E+05-1.48918E+05 1.69690E+05 7.02501E-13-9.15831E-13
 -1       595-5.97751E+05-1.63291E+05-1.52208E+05 1.71409E+05 1.20044E-12-2.33213E-13
 -1       596-6.43733E+05-1.60098E+05-1.60766E+05 1.68878E+05-1.73286E-13 3.19894E-13
 -1       597-5.51830E+05-1.75113E+05-1.45389E+05 1.72085E+05-1.44563E-12-3.74937E-12
 -1       598-5.56944E+05-1.86753E+05-1.48739E+05 1.74162E+05 6.92970E-13-1.57578E-12
 -1       599-5.96151E+05-1.70463E+05-1.53323E+05 1.73125E+05 2.12107E-12 2.87782E-12
 -1       600-5.80552E+05-1.88432E+05-1.53797E+05 1.77597E+05-1.33213E-12-2.77517E-12
 -1       601-6.04223E+05-1.76426E+05-1.56130E+05 1.76276E+05-8.71290E-13 4.51808E-13
 -1       602-6.29569E+05-1.65417E+05-1.58997E+05 1.71146E+05-2.80592E-13 1.20039E-12
 -1       603-6.53923E+05-1.62325E+05-1.63250E+05 1.72526E+05-1.44721E-13-4.57601E-14
 -1       604-4.92158E+05-2.73115E+05-1.53054E+05 2.07876E+05-4.20591E-12-2.31295E-12
 -1       605-4.69744E+05-2.69296E+05-1.47808E+05 1.91010E+05-3.49076E-12 1.68816E-12
 -1       606-5.01641E+05-2.58795E+05-1.52087E+05 1.99087E+05-4.15199E-12-5.20336E-13
 -1       607-4.98129E+05-2.38752E+05-1.47376E+05 1.83280E+05-2.11106E-12 6.32419E-13
 -1       608-4.81722E+05-2.55776E+05-1.47500E+05 1.87632E+05-2.33711E-12-3.32047E-12
 -1       609-4.57116E+05-2.55714E+05-1.42566E+05 1.74962E+05-5.81799E-12 1.19641E-12
 -1       610-4.72748E+05-1.43185E+05-1.23187E+05 1.84070E+05-2.08993E-13-1.35886E-13
 -1       611-4.59577E+05-1.64927E+05-1.24901E+05 1.77730E+05 7.16169E-13-1.00990E-12
 -1       612-5.51144E+05-1.52441E+05-1.40717E+05 1.70909E+05 3.58617E-13-8.45540E-14
 -1       613-3.66823E+05-1.34903E+05-1.00345E+05 2.23093E+05-6.90903E-15-6.02866E-14
 -1       614-3.80727E+05-1.68299E+05-1.09805E+05 1.99048E+05-3.70631E-13-1.08820E-13
 -1       615-3.01700E+05-2.03925E+05-1.01125E+05 2.02077E+05-2.90402E-13 5.42412E-13
 -1       616-3.10114E+05-2.09622E+05-1.03947E+05 1.75743E+05 5.68747E-13-9.97326E-13
 -1       617-3.88352E+05-1.80274E+05-1.13725E+05 1.78425E+05 2.58057E-12-1.16407E-13
 -1       618-3.76115E+05-1.93738E+05-1.13971E+05 1.64272E+05 1.61247E-12-9.29005E-13
 -1       619-4.41965E+05-1.77440E+05-1.23881E+05 1.68578E+05-3.89476E-14-3.72054E-13
 -1       620-2.19859E+05-3.01590E+05-1.04290E+05 1.35354E+05-5.39009E-13 5.72177E-13
 -1       621-3.31873E+05-2.78695E+05-1.22114E+05 1.73899E+05-5.23566E-13 8.09703E-13
 -1       622-3.23841E+05-3.42350E+05-1.33238E+05 2.01796E+05-1.31167E-13 5.40712E-13
 -1       623-2.34887E+05-2.44106E+05-9.57986E+04 1.22371E+05 6.69101E-13-3.38099E-13
 -1       624-3.06361E+05-1.88392E+05-9.89506E+04 1.29656E+05 3.26197E-14 4.27254E-13
 -1       625-3.08731E+05-2.24971E+05-1.06741E+05 1.45561E+05-1.48214E-13-5.62786E-13
 -1       626-3.82917E+05-2.01164E+05-1.16816E+05 1.56114E+05 5.58465E-13 6.76924E-13
 -1       627-4.05181E+05-2.42574E+05-1.29551E+05 1.79950E+05 1.07246E-12-3.72617E-12
 -1       628-2.64642E+05-1.69943E+05-8.69170E+04 2.33082E+04 4.33100E-12 1.30276E-12
 -1       629-2.76448E+05-1.80673E+05-9.14243E+04 1.35145E+04 1.02700E-12 4.54377E-12
 -1       630-2.56819E+05-1.55340E+05-8.24318E+04 4.11738E+04 1.06738E-11-6.41825E-12
 -1       631-2.67853E+05-1.70279E+05-8.76265E+04 3.77470E+04-3.94165E-12-3.97800E-12
 -1       632-2.74567E+05-1.70646E+05-8.90425E+04 5.41613E+04-1.22571E-11 6.02461E-12
 -1       633-2.82190E+05-1.90736E+05-9.45851E+04 4.79421E+04-3.45986E-12-2.53234E-12
 -1       634-2.78186E+05-1.88833E+05-9.34038E+04 3.03148E+04-4.15756E-12-3.22366E-12
 -1       635-2.75122E+05-3.11292E+05-1.17283E+05 1.97679E+04 1.78654E-12 1.64947E-12
 -1       636-2.72813E+05-3.15206E+05-1.17604E+05 4.60265E+04-7.76843E-13-2.43746E-12
 -1       637-2.58400E+05-3.25848E+05-1.16849E+05 2.64567E+04-4.14559E-12-1.64174E-12
 -1       638-2.84371E+05-3.02660E+05-1.17406E+05 3.74054E+04-4.47073E-12 1.52552E-12
 -1       639-3.06537E+05-2.95635E+05-1.20434E+05 7.49694E+04 2.70342E-12-8.63904E-13
 -1       640-2.91013E+05-3.03482E+05-1.18899E+05 6.04503E+04-2.65143E-12-5.32585E-12
 -1       641-3.00690E+05-2.98814E+05-1.19901E+05 8.82838E+04 2.63806E-12 3.56193E-12
 -1       642-2.77536E+05-3.06236E+05-1.16754E+05 7.82791E+04 4.03959E-12-3.37110E-13
 -1       643-1.13034E+05-1.32129E+05-4.90326E+04 6.89378E+03-2.70346E-13 2.43030E-13
 -1       644-1.30509E+05-1.46485E+05-5.53987E+04 2.34486E+04 1.98264E-13-2.49283E-13
 -1       645-1.09179E+05-1.14474E+05-4.47306E+04 4.81806E+03-1.72613E-14 2.34712E-13
 -1       646-1.20995E+05-1.28519E+05-4.99028E+04 1.22082E+04-4.32435E-14-1.14320E-13
 -1       647-1.28869E+05-1.22515E+05-5.02767E+04 1.39264E+04-8.29528E-14 2.68247E-13
 -1       648-1.44990E+05-1.24689E+05-5.39357E+04 2.25376E+04 7.61738E-14 6.25927E-15
 -1       649-1.39477E+05-1.35260E+05-5.49473E+04 2.26814E+04 1.05471E-13-4.74622E-13
 -1       650-1.67396E+05-1.35119E+05-6.05030E+04 3.97685E+04-4.61360E-13-2.13991E-13
 -1       651-1.58103E+05-9.04942E+04-4.97194E+04 1.26539E+04-1.87280E-15-2.17112E-13
 -1       652-1.62258E+05-8.19703E+04-4.88457E+04 1.02171E+04 2.23260E-15 1.07204E-13
 -1       653-1.71995E+05-7.89573E+04-5.01904E+04 1.34451E+04-2.67603E-15 1.42147E-13
 -1       654-1.45563E+05-1.00034E+05-4.91194E+04 1.22638E+04-1.96760E-15-1.07291E-13
 -1       655-1.50021E+05-9.25867E+04-4.85216E+04 1.04351E+04-6.05998E-15-4.04492E-14
 -1       656-1.42434E+05-9.51808E+04-4.75229E+04 8.83329E+03 5.85055E-15-1.95211E-13
 -1       657-1.45029E+05-8.83252E+04-4.66707E+04 6.15775E+03-1.36489E-15-3.22311E-15
 -1       658-1.53401E+05-8.56044E+04-4.78011E+04 7.98334E+03-4.13949E-15-1.25377E-13
 -1       659-1.55343E+05-7.82270E+04-4.67139E+04 4.82134E+03 3.57065E-16-6.84936E-14
 -1       660-1.64905E+05-7.44613E+04-4.78733E+04 7.22833E+03 5.19098E-16 4.41246E-14
 -1       661-2.40391E+05-1.39410E+05-7.59602E+04 3.59011E+04-3.15714E-12-4.02481E-12
 -1       662-2.42768E+05-1.33079E+05-7.51693E+04 4.30460E+04-7.54711E-12 2.30469E-12
 -1       663-2.60740E+05-1.50950E+05-8.23380E+04 4.96147E+04 3.71066E-12 1.06619E-12
 -1       664-2.19556E+05-1.19215E+05-6.77543E+04 3.34705E+04-2.20220E-11-1.75401E-12
 -1       665-2.48368E+05-1.27820E+05-7.52376E+04 4.87727E+04 7.68108E-12 6.48028E-12
 -1       666-2.68362E+05-1.44903E+05-8.26531E+04 5.99423E+04-8.04988E-12-3.95993E-12
 -1       667-2.83305E+05-2.40356E+05-1.04732E+05 1.34831E+05-1.06272E-11 1.50179E-12
 -1       668-3.17555E+05-2.48795E+05-1.13270E+05 1.37384E+05-4.72957E-13 1.64009E-12
 -1       669-3.44232E+05-2.20528E+05-1.12952E+05 1.47379E+05-1.21871E-12-1.14342E-12
 -1       670-3.10865E+05-2.13696E+05-1.04912E+05 1.43718E+05 3.29648E-12-4.19179E-13
 -1       671-2.91145E+05-2.83738E+05-1.14977E+05 1.12413E+05-2.74994E-12-1.28198E-12
 -1       672-3.18243E+05-2.80305E+05-1.19710E+05 1.15297E+05 2.81594E-12 2.81521E-15
 -1       673-3.44894E+05-2.55399E+05-1.20059E+05 1.37193E+05 1.26925E-12-3.69696E-13
 -1       674-3.71701E+05-2.56982E+05-1.25737E+05 1.41368E+05-3.13917E-12-1.89424E-12
 -1       675-4.04005E+05-2.31803E+05-1.27162E+05 1.54418E+05-3.02835E-12 1.18959E-12
 -1       676-3.77501E+05-2.24319E+05-1.20364E+05 1.51490E+05 1.21524E-12 1.45203E-12
 -1       677-4.03207E+05-2.01356E+05-1.20913E+05 1.58982E+05 1.35420E-12-1.88560E-12
 -1       678-3.70239E+05-1.99883E+05-1.14024E+05 1.55501E+05 3.49350E-12-1.60495E-12
 -1       679-1.19554E+05-8.69075E+04-4.12924E+04-6.21442E+03-7.30679E-15-4.69326E-14
 -1       680-1.25891E+05-8.53677E+04-4.22517E+04-4.43734E+03 4.06650E-15 5.90764E-14
 -1       681-1.20466E+05-9.18748E+04-4.24682E+04-1.27397E+03-3.56766E-14 2.19156E-13
 -1       682-1.14610E+05-9.36507E+04-4.16521E+04-2.67309E+03 1.28197E-14 9.39727E-14
 -1       683-1.30976E+05-7.80311E+04-4.18015E+04-7.49419E+03 1.36752E-14 7.54357E-14
 -1       684-1.35362E+05-7.77073E+04-4.26139E+04-5.37002E+03-1.45466E-15-1.27324E-13
 -1       685-1.30132E+05-8.47691E+04-4.29802E+04-2.63233E+03 9.28202E-15 2.18164E-14
 -1       686-3.76762E+05-1.71484E+05-1.09649E+05 1.46417E+05 5.81162E-13 4.23650E-13
 -1       687-4.47947E+05-1.55351E+05-1.20660E+05 1.56674E+05 1.77045E-13-3.62789E-13
 -1       688-4.51494E+05-1.77740E+05-1.25847E+05 1.63753E+05 1.69242E-13 6.09897E-13
 -1       689-3.02659E+05-1.61591E+05-9.28499E+04 1.18565E+05-8.14965E-13-2.17050E-13
 -1       690-3.70146E+05-1.45593E+05-1.03148E+05 1.36312E+05-6.66260E-13 5.74621E-14
 -1       691-3.57164E+05-1.18712E+05-9.51753E+04 1.27504E+05-1.39962E-13 9.84065E-14
 -1       692-4.43707E+05-1.32611E+05-1.15263E+05 1.53831E+05 2.16512E-14-1.75562E-13
 -1       693-5.24101E+05-1.46502E+05-1.34120E+05 1.68908E+05 3.72846E-13-4.24770E-13
 -1       694-2.67917E+05-2.19312E+05-9.74457E+04 1.39043E+05 2.12916E-12 2.02765E-12
 -1       695-2.32878E+05-2.35141E+05-9.36037E+04 1.47456E+05 3.58330E-13-1.62105E-14
 -1       696-1.94574E+05-2.19660E+05-8.28468E+04 1.37947E+05-2.57073E-12 8.45133E-13
 -1       697-2.43747E+05-2.22074E+05-9.31642E+04 1.30386E+05-9.85219E-13 1.94109E-13
 -1       698-2.66065E+05-2.27605E+05-9.87340E+04 1.65796E+05 1.53192E-12-5.00840E-13
 -1       699-2.48616E+05-2.38471E+05-9.74174E+04 1.80306E+05-2.35885E-12-2.95838E-13
 -1       700-2.18594E+05-2.49273E+05-9.35736E+04 1.60103E+05-2.37694E-12 7.24535E-13
 -1       701-2.10661E+05-2.56773E+05-9.34869E+04 1.73723E+05-3.73505E-14-2.75661E-13
 -1       702-1.93485E+05-2.55622E+05-8.98214E+04 1.64153E+05-1.23410E-12 9.03790E-13
 -1       703-1.94801E+05-2.47806E+05-8.85215E+04 1.47306E+05 2.17750E-12-8.56578E-13
 -1       704-8.87059E+04-2.27303E+05-6.32018E+04 1.73505E+05 5.42440E-12-6.81203E-13
 -1       705-9.58237E+04-2.37986E+05-6.67620E+04 1.36213E+05 1.57110E-12-2.28646E-12
 -1       706-2.50880E+05-2.84784E+05-1.07133E+05 1.12940E+05 4.26752E-12-2.74897E-13
 -1       707-2.49829E+05-3.22473E+05-1.14461E+05 6.98981E+04-4.24350E-12 1.00794E-12
 -1       708-2.04087E+05-2.77008E+05-9.62190E+04 1.11338E+05-2.31205E-14-1.37196E-12
 -1       709-2.15615E+05-3.25555E+05-1.08234E+05 4.97539E+04-4.47466E-12 8.68149E-13
 -1       710-2.11187E+05-2.63232E+05-9.48837E+04 2.08625E+05 7.19329E-14 4.45793E-13
 -1       711-2.47877E+05-2.27176E+05-9.50106E+04 2.25350E+05-4.39907E-13-4.07190E-13
 -1       712-2.30028E+05-2.29934E+05-9.19926E+04 2.43992E+05-2.66752E-13-9.65100E-14
 -1       713-2.51353E+05-2.34596E+05-9.71898E+04 1.96335E+05-1.98886E-13-4.40235E-13
 -1       714-2.97275E+05-1.87054E+05-9.68656E+04 2.29498E+05 6.31350E-13 1.55642E-16
 -1       715-3.36911E+05-1.17226E+05-9.08274E+04 2.47979E+05-2.84140E-13-1.91522E-13
 -1       716-2.66223E+05-1.81407E+05-8.95260E+04 2.56085E+05 1.18325E-13-1.67598E-13
 -1       717-2.28762E+05-1.80630E+05-8.18785E+04 2.78768E+05-2.21072E-13 4.98295E-14
 -1       718-4.49814E+05-2.04106E+05-1.30784E+05 1.70135E+05-6.66216E-13 9.28693E-13
 -1       719-4.67665E+05-2.19384E+05-1.37410E+05 1.78601E+05-1.15351E-12-2.33299E-13
 -1       720-4.29569E+05-2.61082E+05-1.38130E+05 1.88711E+05 1.07762E-12-1.54603E-13
 -1       721-5.04213E+05-2.03319E+05-1.41506E+05 1.74660E+05 1.84735E-13-1.62459E-12
 -1       722-5.13586E+05-2.21531E+05-1.47023E+05 1.83590E+05 3.13201E-13-5.96289E-13
 -1       723-4.84319E+05-2.44249E+05-1.45713E+05 1.86771E+05-1.95066E-12 6.41272E-13
 -1       724-4.83541E+05-2.68927E+05-1.50494E+05 2.01926E+05-7.75263E-13 1.69506E-12
 -1       725-4.37667E+05-2.93743E+05-1.46282E+05 2.04297E+05 1.83448E-12 1.94222E-12
 -1       726-3.20029E+05-2.88814E+05-1.21769E+05 8.68925E+04 2.10968E-12-1.33606E-12
 -1       727-3.35858E+05-2.86595E+05-1.24491E+05 1.06820E+05-1.06995E-12 2.23636E-13
 -1       728-3.19532E+05-2.90959E+05-1.22098E+05 9.67472E+04-1.19482E-12-5.61915E-12
 -1       729-3.51016E+05-2.82803E+05-1.26764E+05 1.16846E+05-5.23884E-12 2.69115E-12
 -1       730-3.70071E+05-2.78768E+05-1.29768E+05 1.32546E+05-2.86970E-12-1.42892E-12
 -1       731-3.53901E+05-2.78496E+05-1.26479E+05 1.24703E+05-7.54335E-12 4.12170E-13
 -1       732-3.85931E+05-2.61720E+05-1.29530E+05 1.43967E+05 6.24815E-13-1.61240E-12
 -1       733-3.39884E+05-2.79070E+05-1.23791E+05 1.20191E+05-1.37289E-12 3.35776E-12
 -1       734-3.00401E+05-1.33268E+05-8.67337E+04 1.08934E+05-2.50807E-13-4.64681E-13
 -1       735-2.97936E+05-1.05137E+05-8.06146E+04 9.97705E+04 1.29967E-15-1.68801E-14
 -1       736-2.46760E+05-1.45846E+05-7.85212E+04 8.80825E+04-1.79914E-13 1.14726E-13
 -1       737-2.08527E+05-1.25389E+05-6.67832E+04 5.91658E+04 1.68521E-13 3.40184E-13
 -1       738-2.51016E+05-1.17927E+05-7.37886E+04 8.11924E+04-7.12104E-14 1.93590E-13
 -1       739-2.55245E+05-9.12510E+04-6.92993E+04 7.22316E+04-7.77325E-14 2.55080E-14
 -1       740-1.30110E+05-8.86865E+04-4.37593E+04 2.19362E+02 4.83771E-15 2.04144E-14
 -1       741-1.27097E+05-9.43373E+04-4.42868E+04 3.18024E+03 5.38994E-14-1.38510E-13
 -1       742-1.17970E+05-9.73397E+04-4.30620E+04 1.96196E+03-4.73894E-14 8.33010E-15
 -1       743-1.36860E+05-9.14056E+04-4.56532E+04 4.68209E+03-6.70340E-15 3.90292E-14
 -1       744-1.33040E+05-9.73156E+04-4.60711E+04 7.13328E+03 3.56060E-17 3.06084E-13
 -1       745-1.23966E+05-1.00320E+05-4.48573E+04 5.99499E+03 1.40757E-14-1.80634E-13
 -1       746-1.18870E+05-1.06516E+05-4.50771E+04 8.77281E+03-5.71779E-14-1.57160E-13
 -1       747-1.14587E+05-1.03320E+05-4.35815E+04 5.32958E+03-3.44717E-14 5.89679E-14
 -1       748-1.09301E+05-1.00219E+05-4.19040E+04 1.34918E+03-4.20901E-14 4.31301E-14
 -1       749-1.37083E+05-1.01380E+05-4.76927E+04 1.06317E+04 3.81006E-15-1.85541E-13
 -1       750-1.28516E+05-1.03797E+05-4.64626E+04 9.45599E+03-1.85995E-14-1.13728E-13
 -1       751-1.38908E+05-1.05922E+05-4.89660E+04 1.32174E+04-1.71647E-15-1.34749E-13
 -1       752-1.31566E+05-1.07675E+05-4.78481E+04 1.22253E+04 8.20505E-15 6.61256E-14
 -1       753-1.25083E+05-1.13576E+05-4.77319E+04 1.47305E+04 8.53451E-15 4.26103E-14
 -1       754-1.22765E+05-1.10321E+05-4.66172E+04 1.22960E+04-1.58275E-14 5.50716E-15
 -1       755-5.41820E+05-1.82033E+05-1.44771E+05 1.72751E+05 1.24519E-12 6.66243E-13
 -1       756-5.88617E+05-1.67008E+05-1.51125E+05 1.70244E+05 8.69544E-13-1.42285E-12
 -1       757-5.89397E+05-1.79011E+05-1.53682E+05 1.76348E+05-8.25725E-13 3.90009E-14
 -1       758-5.54083E+05-2.01532E+05-1.51123E+05 1.78771E+05 4.38461E-14 4.28793E-13
 -1       759-5.59503E+05-1.47819E+05-1.41464E+05 1.71731E+05-3.23389E-13-7.12868E-13
 -1       760-6.25648E+05-1.59177E+05-1.56965E+05 1.74752E+05 1.36353E-13 2.97536E-13
 -1       761-6.25661E+05-1.67837E+05-1.58700E+05 1.71027E+05 4.28567E-13 7.73621E-13
 -1       762-5.80524E+05-1.96596E+05-1.55424E+05 1.81397E+05 4.68786E-13 5.06160E-13
 -1       763-1.14870E+05-7.35148E+04-3.76769E+04-2.14294E+04-2.37814E-14-1.11948E-14
 -1       764-1.26820E+05-6.27073E+04-3.79055E+04-2.17610E+04-1.83554E-14-6.25730E-15
 -1       765-1.30574E+05-6.60399E+04-3.93228E+04-1.68530E+04-2.23299E-14-1.31693E-14
 -1       766-1.20102E+05-7.51131E+04-3.90431E+04-1.62432E+04-3.91644E-15-3.15090E-15
 -1       767-1.19352E+05-5.82229E+04-3.55150E+04-2.83112E+04 2.22696E-14 6.00778E-15
 -1       768-1.30830E+05-4.87684E+04-3.59197E+04-2.61147E+04-1.23680E-14-1.20082E-15
 -1       769-1.36452E+05-5.31551E+04-3.79214E+04-2.06172E+04-9.61933E-16-8.34231E-15
 -1       770-1.48435E+05-4.19878E+04-3.80845E+04-1.82678E+04-3.56994E-15-9.63932E-15
 -1       771-1.52558E+05-4.85631E+04-4.02242E+04-1.32083E+04 3.16164E-15 1.63538E-14
 -1       772-1.40918E+05-5.85886E+04-3.99014E+04-1.52043E+04 1.87575E-14 2.28043E-14
 -1       773-1.42193E+05-6.56499E+04-4.15687E+04-9.94756E+03 4.25096E-15-6.58955E-14
 -1       774-1.32573E+05-7.26008E+04-4.10347E+04-1.10044E+04-6.67679E-15-5.53422E-15
 -1       775-1.76852E+05-5.26843E+04-4.59072E+04 2.18643E+03-2.27809E-15 1.28665E-14
 -1       776-1.66251E+05-5.89183E+04-4.50338E+04-7.10916E+02-3.39459E-16-2.36054E-14
 -1       777-1.65882E+05-5.04610E+04-4.32686E+04-4.82986E+03 2.58170E-15 9.21108E-15
 -1       778-1.65911E+05-6.63410E+04-4.64503E+04 3.34765E+03-1.89565E-15 1.97198E-15
 -1       779-1.56005E+05-7.19507E+04-4.55912E+04 1.28943E+03-1.71200E-15-3.98413E-14
 -1       780-1.55682E+05-6.47002E+04-4.40764E+04-3.03051E+03 9.63351E-17 1.27142E-14
 -1       781-1.44325E+05-7.19739E+04-4.32598E+04-4.69493E+03 1.17226E-14-6.19919E-14
 -1       782-1.54440E+05-5.77673E+04-4.24415E+04-7.86726E+03 7.66605E-15-5.74263E-14
 -1       783-9.91622E+04-9.26770E+04-3.83679E+04-9.90321E+03-2.56360E-14-5.38233E-15
 -1       784-1.01570E+05-9.22185E+04-3.87577E+04-1.59346E+04 2.03918E-14 4.35483E-14
 -1       785-9.99827E+04-9.97182E+04-3.99402E+04-3.49116E+03-3.08092E-14 1.79001E-14
 -1       786-6.01164E+04-3.90061E+04-1.98245E+04-5.70463E+04-9.97762E-15-9.14108E-17
 -1       787-9.62743E+04-7.61114E+04-3.44771E+04-3.02890E+04 1.37389E-15-4.72003E-15
 -1       788-1.15550E+05-5.51957E+04-3.41491E+04-3.43931E+04-9.38272E-15-8.72911E-16
 -1       789-1.01659E+05-7.59048E+04-3.55128E+04-2.56301E+04 1.58582E-14-3.36005E-15
 -1       790-1.06381E+05-8.64122E+04-3.85587E+04-1.47357E+04 5.97143E-16-3.08372E-14
 -1       791-2.19733E+05-7.05376E+04-5.80541E+04 3.84051E+04 6.29313E-15 8.65807E-14
 -1       792-2.03326E+05-7.79094E+04-5.62471E+04 3.21327E+04 5.21412E-14-6.66968E-14
 -1       793-2.09220E+05-6.41217E+04-5.46684E+04 2.74407E+04-1.28378E-14-4.21757E-14
 -1       794-1.95074E+05-9.24663E+04-5.75080E+04 3.49398E+04 5.27349E-14 1.86960E-13
 -1       795-1.89234E+05-8.20689E+04-5.42605E+04 2.53372E+04 2.74271E-14 7.28092E-15
 -1       796-1.82646E+05-7.45591E+04-5.14410E+04 1.70691E+04-1.90867E-15 1.40788E-14
 -1       797-1.95055E+05-7.04251E+04-5.30960E+04 2.21374E+04 7.57007E-15-4.64687E-14
 -1       798-1.98292E+05-5.93337E+04-5.15252E+04 1.76244E+04-9.46974E-15-3.22296E-16
 -1       799-1.86455E+05-6.51715E+04-5.03252E+04 1.38163E+04 3.44107E-15-1.09373E-13
 -1       800-1.88485E+05-5.57693E+04-4.88509E+04 1.00603E+04 5.75556E-15 1.68122E-14
 -1       801-1.75165E+05-6.95991E+04-4.89528E+04 1.01071E+04-4.04455E-15 8.88201E-14
 -1       802-1.76908E+05-6.14078E+04-4.76632E+04 6.39512E+03 9.23966E-17-3.78323E-14
 -1       803-2.25234E+05-1.02220E+05-6.54908E+04 5.97581E+04-8.28445E-14-4.60324E-14
 -1       804-2.34744E+05-7.95815E+04-6.28652E+04 5.39367E+04-1.70928E-14-1.31479E-13
 -1       805-1.84012E+05-1.27102E+05-6.22228E+04 4.61122E+04-4.15155E-14-9.39761E-14
 -1       806-2.02170E+05-1.06646E+05-6.17633E+04 4.67848E+04 8.12265E-14-1.14798E-13
 -1       807-1.84849E+05-1.08566E+05-5.86830E+04 3.71602E+04 6.73573E-14 5.86593E-14
 -1       808-2.11917E+05-8.86973E+04-6.01228E+04 4.42803E+04 6.22810E-15-1.25169E-13
 -1       809-1.38207E+05-1.03994E+05-4.84402E+04 3.75210E+03 3.38118E-12 8.48618E-12
 -1       810-1.32644E+05-1.04680E+05-4.74648E+04 9.73635E+02 1.35718E-11-2.13683E-12
 -1       811-1.11524E+05-1.03208E+05-4.29465E+04 8.09274E+02 3.10284E-11-9.35021E-12
 -1       812-1.65868E+05-1.07327E+05-5.46388E+04 8.95343E+03 7.07508E-12 6.66190E-12
 -1       813-1.59948E+05-1.08760E+05-5.37416E+04 3.91072E+03-5.39213E-13-3.71522E-13
 -1       814-1.73186E+05-1.13117E+05-5.72606E+04 3.14618E+03 1.34963E-12 1.36022E-12
 -1       815-1.58257E+05-1.09512E+05-5.35539E+04-5.34533E+02-1.33779E-11 7.15175E-12
 -1       816-1.45279E+05-1.06512E+05-5.03582E+04 2.07607E+02 3.79393E-12-3.37821E-12
 -1       817-1.38092E+05-1.05646E+05-4.87476E+04-1.17535E+03 1.22096E-12-2.52826E-12
 -1       818-1.25403E+05-1.04165E+05-4.59136E+04-5.40110E+02 1.59016E-12-4.95315E-12
 -1       819-1.25173E+05-1.16582E+05-4.83510E+04 1.59166E+04-8.76534E-15-5.48777E-14
 -1       820-1.29862E+05-1.16297E+05-4.92318E+04 1.41494E+04 6.07446E-15 4.00988E-13
 -1       821-1.22207E+05-1.17984E+05-4.80382E+04 1.47763E+04-1.03939E-14 3.41758E-13
 -1       822-1.32339E+05-1.11948E+05-4.88573E+04 1.39935E+04 1.44467E-14-2.52740E-13
 -1       823-1.37292E+05-1.12556E+05-4.99696E+04 1.50565E+04 3.38765E-15-3.10538E-14
 -1       824-1.32591E+05-1.19051E+05-5.03284E+04 1.53498E+04 1.02065E-13 4.02204E-13
 -1       825-1.46774E+05-8.24026E+04-4.58353E+04 3.23107E+03-2.14376E-14 1.50921E-14
 -1       826-1.46795E+05-7.62701E+04-4.46131E+04-4.73801E+02-6.20579E-15 1.32923E-14
 -1       827-1.37871E+05-8.55945E+04-4.46930E+04 1.51010E+03 1.91906E-14-3.64147E-14
 -1       828-1.38492E+05-8.15272E+04-4.40038E+04-1.12863E+03 1.70282E-14 8.76858E-15
 -1       829-4.11958E+05-2.51460E+05-1.32684E+05 1.54932E+05-4.86356E-12 2.37037E-12
 -1       830-4.47563E+05-2.42997E+05-1.38112E+05 1.66086E+05 9.93271E-14 3.59193E-12
 -1       831-4.72853E+05-2.22913E+05-1.39153E+05 1.69195E+05 4.83668E-12 3.27818E-12
 -1       832-4.36241E+05-2.30096E+05-1.33267E+05 1.60218E+05 4.05341E-12-2.36276E-12
 -1       833-4.29795E+05-2.59303E+05-1.37820E+05 1.63814E+05 5.69291E-12-3.51580E-12
 -1       834-4.75428E+05-2.39413E+05-1.42968E+05 1.75493E+05-1.58882E-12 5.96087E-13
 -1       835-5.20133E+05-2.19971E+05-1.48021E+05 1.81326E+05-2.75851E-12 1.45872E-12
 -1       836-4.97973E+05-2.20900E+05-1.43775E+05 1.74684E+05 3.87845E-13 4.37093E-13
 -1       837-5.29137E+05-1.99660E+05-1.45759E+05 1.74803E+05-2.33626E-12 2.86577E-12
 -1       838-5.04519E+05-2.01349E+05-1.41174E+05 1.70485E+05-3.77531E-13 2.47110E-12
 -1       839-5.49697E+05-2.29231E+05-1.55786E+05 1.98858E+05-2.59286E-12 7.75393E-13
 -1       840-5.54218E+05-2.14333E+05-1.53710E+05 1.89472E+05-1.35299E-12-1.36709E-12
 -1       841-5.21875E+05-2.67320E+05-1.57839E+05 2.26656E+05 1.32750E-12-1.77564E-12
 -1       842-5.23292E+05-2.52539E+05-1.55166E+05 2.11796E+05-6.15500E-13 8.47607E-13
 -1       843-4.88171E+05-2.82957E+05-1.54226E+05 2.21885E+05 1.72970E-12 1.32603E-13
 -1       844-5.20958E+05-2.40202E+05-1.52232E+05 1.95763E+05 5.28123E-13 1.69173E-12
 -1       845-1.88830E+05-1.17588E+05-6.12836E+04 7.85060E+03-9.17033E-12-5.63692E-14
 -1       846-1.85267E+05-1.18980E+05-6.08494E+04 7.44453E+02-2.94292E-11 1.36232E-11
 -1       847-3.07006E+05-2.23103E+05-1.06022E+05 7.41538E+04-1.15316E-11-1.46639E-12
 -1       848-3.20608E+05-2.27015E+05-1.09525E+05 9.19887E+04 2.38792E-11 2.22351E-12
 -1       849-3.18666E+05-2.41389E+05-1.12011E+05 8.58251E+04 1.02615E-11-4.10238E-12
 -1       850-3.19110E+05-2.10377E+05-1.05897E+05 9.28964E+04-6.97473E-12-1.35573E-11
 -1       851-3.38068E+05-2.28834E+05-1.13380E+05 1.09751E+05 1.34692E-13 7.59865E-12
 -1       852-3.36566E+05-2.45872E+05-1.16487E+05 1.06923E+05 1.22833E-11-5.85926E-13
 -1       853-1.32854E+05-1.04700E+05-4.75107E+04-1.57885E+03 2.06298E-11 3.02488E-12
 -1       854-1.30011E+05-1.04091E+05-4.68205E+04-1.59009E+03 2.11767E-11-1.30451E-11
 -1       855-1.19998E+05-1.03388E+05-4.46772E+04-1.17785E+03 1.16692E-11 1.89577E-12
 -1       856-1.23003E+05-1.03918E+05-4.53843E+04-1.15494E+03-2.30507E-11-2.81212E-12
 -1       857-1.39047E+05-1.05058E+05-4.88210E+04-1.96006E+03 1.62456E-11-9.90686E-12
 -1       858-1.27723E+05-1.03575E+05-4.62597E+04-1.51105E+03-1.57416E-11-8.44916E-12
 -1       859-1.17176E+05-1.02595E+05-4.39542E+04-8.64731E+02-1.09387E-11 8.56171E-12
 -1       860-1.18158E+05-1.03027E+05-4.42370E+04-1.03724E+03 2.31276E-11-2.92456E-12
 -1       861-1.06705E+05-1.02650E+05-4.18709E+04-4.63316E+02-2.72388E-11-2.18930E-12
 -1       862-1.08725E+05-1.03189E+05-4.23828E+04-5.97010E+02-1.68796E-11 3.50735E-12
 -1       863-1.95440E+05-2.56096E+05-9.03072E+04 1.59001E+05 1.15624E-12 4.74595E-13
 -1       864-1.95058E+05-2.79613E+05-9.49342E+04 1.59117E+05-3.66872E-12 1.27114E-13
 -1       865-2.06210E+05-2.97838E+05-1.00810E+05 1.36087E+05 2.45985E-12 2.18423E-13
 -1       866-1.94120E+05-2.62544E+05-9.13327E+04 1.67068E+05 2.97172E-12 7.63990E-13
 -1       867-1.99815E+05-2.68863E+05-9.37358E+04 1.76792E+05 7.37485E-13-6.09590E-13
 -1       868-1.93816E+05-2.88417E+05-9.64466E+04 1.69344E+05-1.61371E-14-1.03896E-13
 -1       869-2.00413E+05-2.83407E+05-9.67638E+04 1.95088E+05 2.16599E-12 9.53992E-14
 -1       870-2.02719E+05-3.32533E+05-1.07050E+05 1.58865E+05 6.88999E-13-2.98130E-13
 -1       871-2.18102E+05-1.23418E+05-6.83040E+04 2.79299E+04-1.51199E-11 2.01800E-13
 -1       872-1.92903E+05-1.12330E+05-6.10465E+04 2.05056E+04-3.43627E-12-4.36675E-12
 -1       873-2.17958E+05-1.28419E+05-6.92754E+04 2.21532E+04 1.14544E-11 8.94401E-13
 -1       874-1.90859E+05-1.15417E+05-6.12552E+04 1.33675E+04-1.02773E-11-1.69950E-12
 -1       875-1.06601E+05-1.01408E+05-4.16018E+04-9.66573E+01-2.66228E-11 7.69819E-12
 -1       876-1.11619E+05-1.01471E+05-4.26181E+04-3.70548E+01-7.11173E-12-4.50457E-12
 -1       877-1.12150E+05-1.02135E+05-4.28572E+04-4.81000E+02-1.00018E-11 5.61919E-12
 -1       878-1.17077E+05-1.01760E+05-4.37674E+04-3.33527E+02-1.72610E-11-3.74782E-12
 -1       879-1.79820E+05-1.15241E+05-5.90123E+04-2.81565E+03-4.78806E-12-1.16690E-13
 -1       880-1.87550E+05-1.20122E+05-6.15343E+04-1.16162E+03-1.01244E-11 3.71682E-12
 -1       881-1.58970E+05-1.08802E+05-5.35544E+04-2.49554E+03-2.90171E-12 8.16088E-13
 -1       882-1.48935E+05-1.06924E+05-5.11718E+04-2.16815E+03-5.25055E-12-4.34943E-12
 -1       883-1.64563E+05-1.10395E+05-5.49915E+04-2.60539E+03-2.43103E-11 2.09278E-12
 -1       884-1.63591E+05-1.11259E+05-5.49699E+04-1.42265E+03 1.72406E-11 7.38187E-15
 -1       885-1.09572E+05-9.40250E+04-4.07194E+04-4.34172E+03 3.88192E-14-5.21812E-14
 -1       886-1.04835E+05-9.69219E+04-4.03514E+04-4.25519E+03 3.19038E-14-6.62098E-14
 -1       887-1.07475E+05-9.17504E+04-3.98451E+04-8.29770E+03-2.53457E-14 2.04749E-14
 -1       888-1.13798E+05-8.89777E+04-4.05551E+04-7.75000E+03 3.25213E-14-2.13377E-14
 -1       889-1.03119E+05-9.95254E+04-4.05289E+04-1.36824E+03 6.43998E-14-1.74007E-15
 -1       890-1.02615E+05-9.94563E+04-4.04142E+04-2.10794E+03-4.25982E-14-7.83725E-14
 -1       891-1.01205E+05-9.57423E+04-3.93895E+04-7.87646E+03 1.88815E-14-6.75678E-14
 -1       892-1.12886E+05-8.36098E+04-3.92992E+04-1.39059E+04 6.65365E-15-1.47038E-14
 -1       893-2.89800E+05-1.98779E+05-9.77158E+04 5.29074E+04 3.89829E-13-1.26637E-12
 -1       894-2.94671E+05-1.98672E+05-9.86686E+04 6.46271E+04 9.75032E-12-1.00784E-11
 -1       895-2.95554E+05-2.07674E+05-1.00646E+05 6.14080E+04-1.26591E-11-2.17631E-12
 -1       896-2.87751E+05-1.87674E+05-9.50851E+04 6.08086E+04-5.45609E-12-3.48121E-12
 -1       897-3.00961E+05-1.95391E+05-9.92702E+04 7.56622E+04-1.50226E-11-1.77030E-12
 -1       898-3.05536E+05-2.09978E+05-1.03103E+05 7.71641E+04 5.93194E-12-3.40098E-13
 -1       899-5.27946E+05-1.71798E+05-1.39949E+05 1.70989E+05-1.77805E-12 2.18074E-12
 -1       900-4.79080E+05-1.97855E+05-1.35387E+05 1.67562E+05 9.22008E-13 3.02412E-13
 -1       901-4.86861E+05-1.73609E+05-1.32094E+05 1.70563E+05-3.71981E-13 2.35610E-12
 -1       902-4.46782E+05-1.97672E+05-1.28891E+05 1.63152E+05-2.73223E-12 5.50990E-13
 -1       903-2.68561E+05-1.65910E+05-8.68942E+04 2.82190E+05 8.41761E-13-1.85952E-13
 -1       904-1.19818E+05-1.90200E+05-6.20035E+04 3.20938E+05-6.47245E-14-1.06960E-13
 -1       905-1.74334E+05-7.38580E+04-4.96384E+04 3.26981E+05 1.38464E-13 9.39509E-14
 -1       906-6.07172E+04-2.47082E+05-6.15599E+04 2.74308E+05 2.31523E-13 1.00398E-13
 -1       907-4.55644E+05-3.24153E+05-1.55959E+05 2.72729E+05 1.07998E-12 5.47573E-12
 -1       908-4.96381E+05-3.04597E+05-1.60196E+05 2.61481E+05-5.62422E-14 4.75693E-13
 -1       909-4.54285E+05-3.56874E+05-1.62232E+05 2.81067E+05-3.54930E-12-1.60441E-12
 -1       910-4.62966E+05-3.18890E+05-1.56371E+05 2.58246E+05-1.81955E-12-9.90917E-13
 -1       911-4.55851E+05-3.16853E+05-1.54541E+05 2.30370E+05-1.04166E-13 3.10299E-12
 -1       912-4.95560E+05-2.90848E+05-1.57282E+05 2.44212E+05-1.48936E-12-1.74323E-12
 -1       913-1.76334E+05-1.18121E+05-5.88912E+04 3.65827E+04 1.52112E-13 3.32597E-13
 -1       914-1.63262E+05-1.16765E+05-5.60054E+04 2.87138E+04-5.36592E-14 3.11371E-13
 -1       915-1.59977E+05-1.25696E+05-5.71346E+04 3.06636E+04 1.57468E-13 2.00702E-13
 -1       916-1.03946E+05-1.00783E+05-4.09458E+04 1.93970E+02 6.35480E-14-5.32006E-14
 -1       917-1.10086E+05-9.74920E+04-4.15157E+04-5.95152E+02-2.18645E-14-3.01418E-14
 -1       918-1.05740E+05-9.82156E+04-4.07912E+04-1.92929E+03-5.15568E-14-7.16347E-14
 -1       919-2.89680E+05-2.17528E+05-1.01442E+05 1.49660E+05-3.03121E-12 2.50222E-12
 -1       920-3.33471E+05-2.04223E+05-1.07539E+05 1.60695E+05 9.49045E-14 1.43735E-13
 -1       921-3.27216E+05-2.06827E+05-1.06808E+05 1.49886E+05-1.99498E-12 1.73570E-12
 -1       922-1.16641E+05-1.03762E+05-4.40807E+04-1.20699E+02 2.37402E-11 2.87430E-12
 -1       923-1.06987E+05-1.04138E+05-4.22249E+04-1.49406E+02-1.07174E-11 5.20829E-12
 -1       924-1.14316E+05-1.03622E+05-4.35877E+04-6.85810E+02-1.64614E-12 5.58936E-12
 -1       925-5.61847E+05-1.92189E+05-1.50807E+05 1.77305E+05 3.52297E-12-2.15479E-12
 -1       926-5.49417E+05-2.07607E+05-1.51405E+05 1.82754E+05 1.67593E-12-1.68444E-13
 -1       927-5.36359E+05-2.06386E+05-1.48549E+05 1.78351E+05 1.56253E-12 5.61085E-14
 -1       928-1.17152E+05-8.33582E+04-4.01021E+04-1.10649E+04 1.88931E-14 3.61477E-14
 -1       929-1.23498E+05-8.14682E+04-4.09933E+04-9.17397E+03-9.42998E-15-6.68512E-15
 -1       930-1.24438E+05-7.60664E+04-4.01009E+04-1.30804E+04 1.66148E-14-9.41870E-14
 -1       931-5.31951E+05-1.68004E+05-1.39991E+05 1.67607E+05 6.76396E-13 3.50590E-13
 -1       932-4.94377E+05-1.65980E+05-1.32071E+05 1.64897E+05 3.96971E-13-5.71770E-13
 -1       933-4.89565E+05-1.85409E+05-1.34995E+05 1.70114E+05-1.13372E-14-1.12141E-12
 -1       934-1.14915E+05-1.16225E+05-4.62278E+04 1.10103E+04 2.29698E-14-5.68759E-14
 -1       935-1.17720E+05-1.20141E+05-4.75722E+04 1.03361E+04-1.83594E-14-1.58586E-13
 -1       936-1.22839E+05-1.19127E+05-4.83933E+04 1.22754E+04 1.01786E-13-3.29432E-13
 -1       937-3.85590E+05-2.70551E+05-1.31228E+05 1.42527E+05 1.74358E-12-3.67807E-12
 -1       938-4.10184E+05-2.62168E+05-1.34471E+05 1.54151E+05 1.50328E-12 3.91982E-13
 -1       939-4.01274E+05-2.71100E+05-1.34475E+05 1.52087E+05 2.51711E-12 1.21395E-12
 -1       940-3.35448E+05-2.79455E+05-1.22981E+05 1.02142E+05 8.16740E-12 1.05948E-12
 -1       941-3.19642E+05-2.81825E+05-1.20293E+05 8.25659E+04 1.14035E-12-1.98993E-13
 -1       942-3.31635E+05-2.85070E+05-1.23341E+05 9.76729E+04-9.37856E-12-1.75063E-12
 -1       943-1.81135E+05-2.42641E+05-8.47551E+04 1.57700E+05-2.43774E-12-1.29295E-12
 -1       944-1.72995E+05-2.40388E+05-8.26766E+04 1.64913E+05-4.06947E-12-1.11152E-12
 -1       945-1.88556E+05-2.53997E+05-8.85106E+04 1.64415E+05 3.20825E-12 8.68996E-13
 -1       946-2.08961E+05-2.67850E+05-9.53623E+04 1.86843E+05-3.13901E-13-1.59778E-13
 -1       947-2.25932E+05-2.53300E+05-9.58464E+04 1.99669E+05-2.29173E-13 1.05685E-13
 -1       948-2.23271E+05-2.53425E+05-9.53393E+04 1.84623E+05 7.90226E-13 1.14926E-12
 -1       949-3.78154E+05-3.97444E+05-1.55119E+05 2.58749E+05-1.15265E-13 5.00857E-13
 -1       950-4.36227E+05-3.57059E+05-1.58657E+05 2.44198E+05 2.42890E-13 5.04492E-13
 -1       951-3.96048E+05-3.17506E+05-1.42711E+05 2.18046E+05-1.15554E-12-1.02972E-12
 -1       952-1.50785E+05-1.07556E+05-5.16682E+04-2.10802E+03 9.75804E-12 6.55497E-12
 -1       953-1.46097E+05-1.06809E+05-5.05811E+04-1.46982E+03-2.48216E-11-3.83036E-12
 -1       954-1.40860E+05-1.05754E+05-4.93227E+04-1.95195E+03 1.33257E-11 5.09921E-13
 -1       955-1.41452E+05-3.87530E+04-3.60411E+04-2.35690E+04-1.55952E-15 3.96179E-16
 -1       956-1.32773E+05-4.07174E+04-3.46981E+04-2.85720E+04 3.95852E-15-5.14151E-16
 -1       957-1.26495E+05-3.59042E+04-3.24798E+04-3.29127E+04 9.35622E-16 1.53363E-15
 -1       958-1.38882E+05-4.38463E+04-3.65456E+04-2.34858E+04-3.45842E-15 2.55874E-15
 -1       959-1.25027E+05-4.61074E+04-3.42268E+04-3.15672E+04 3.72375E-15-7.68532E-15
 -1       960-1.02844E+05-4.53965E+04-2.96481E+04-4.25643E+04 3.35676E-15-2.02483E-15
 -1       961-1.20121E+05-3.96491E+04-3.19540E+04-3.60457E+04-8.35915E-16-1.14467E-14
 -1       962-1.02482E+05-3.13173E+04-2.67599E+04-4.21382E+04 2.87402E-15-2.40269E-15
 -3
    1PSTEP                         3           1           1          
  100CL  101 1.000000000         960                     0    1           1
 -4  TOSTRAIR    6    1
 -5  EXX         1    4    1    1
 -5  EYY         1    4    2    2
 -5  EZZ         1    4    3    3
 -5  EXY         1    4    1    2
 -5  EYZ         1    4    2    3
 -5  EZX         1    4    3    1
 -1         1 2.36826E-05-1.53682E-08 0.00000E+00 2.36904E-05-2.63557E-24 2.07951E-24
 -1         2-8.62550E-06-9.94300E-06 0.00000E+00 6.08284E-07-5.82606E-23 6.86472E-25
 -1         3 2.44651E-06-7.71253E-06 0.00000E+00 6.98587E-06-6.01430E-24 8.71407E-24
 -1         4-3.75636E-06-2.26340E-06 0.00000E+00-7.42215E-08 2.42144E-23-9.59927E-23
 -1         5-2.43591E-06-2.42742E-06 0.00000E+00 1.23266E-09-7.54253E-22 2.66339E-22
 -1         6-2.45624E-06-2.44553E-06 0.00000E+00 2.63693E-08 4.30486E-22 2.29729E-22
 -1         8-1.24019E-05-8.01355E-06 0.00000E+00 1.26381E-05-5.82068E-23 1.68895E-22
 -1        10-2.39147E-06-2.51839E-06 0.00000E+00 1.04472E-09-1.29506E-24 1.58190E-23
 -1        11-2.63315E-06-2.44500E-06 0.00000E+00 1.24884E-07-1.94977E-24 5.17641E-26
 -1        12-2.89654E-07-8.67023E-07 0.00000E+00-2.67540E-06 5.51649E-25-1.94773E-25
 -1        13 1.68882E-05-1.46427E-05 0.00000E+00 8.09429E-06-2.49184E-24 9.60575E-24
 -1        14 8.88307E-07-1.22665E-05 0.00000E+00 7.67137E-07 9.34439E-23-1.54301E-24
 -1        15-5.59362E-06-1.15189E-05 0.00000E+00 4.49822E-07 6.56569E-24-1.05043E-23
 -1        16 2.34152E-05-6.86776E-06 0.00000E+00 1.74905E-05 1.06759E-23-1.02169E-23
 -1        17 6.39673E-06-1.44644E-05 0.00000E+00 2.94319E-06-2.29796E-23 1.80251E-24
 -1        18-2.70342E-06-1.20674E-05 0.00000E+00 6.92588E-07 3.88123E-23 2.32596E-23
 -1        19-7.57272E-06-1.09319E-05 0.00000E+00 5.51392E-07-6.22687E-24 4.89552E-24
 -1        20-5.67877E-06-7.44622E-06 0.00000E+00 4.87310E-06 1.23236E-22-3.73477E-24
 -1        21-4.24212E-06-6.43736E-06 0.00000E+00 6.23278E-06 1.78044E-22-1.72119E-23
 -1        22-4.22323E-06-4.89101E-06 0.00000E+00 7.15712E-06-1.59814E-22 6.02664E-24
 -1        23-7.31495E-06-8.61687E-06 0.00000E+00 2.85193E-06 8.49918E-23 1.24294E-25
 -1        24-4.87781E-06-6.78778E-06 0.00000E+00 5.65704E-06 1.00349E-22 1.04411E-24
 -1        25-4.23637E-06-6.03536E-06 0.00000E+00 6.60094E-06-2.79697E-24-4.70766E-23
 -1        26-1.09989E-06-5.60348E-06 0.00000E+00 8.58364E-06 1.78075E-23 4.88400E-23
 -1        27-4.63635E-06-9.52027E-06 0.00000E+00-4.55124E-07 2.18933E-22-5.37785E-23
 -1        28-5.97463E-06-8.47193E-06 0.00000E+00-9.76067E-10-2.26708E-22 1.48001E-24
 -1        29-6.21114E-06-7.87653E-06 0.00000E+00-1.62703E-08-6.58695E-23-5.62582E-23
 -1        30-6.34363E-06-7.31769E-06 0.00000E+00-7.94321E-09-2.06402E-22 5.28175E-23
 -1        31-6.41133E-06-6.80602E-06 0.00000E+00-3.82178E-09-3.89389E-22 8.12913E-23
 -1        32-6.54438E-06-6.27802E-06 0.00000E+00 3.23899E-09-1.66399E-22-6.61860E-23
 -1        33-6.75384E-06-5.73739E-06 0.00000E+00 2.54812E-09 1.78381E-22 9.21026E-23
 -1        34-7.03195E-06-5.18409E-06 0.00000E+00-6.46762E-09-3.06770E-23 1.42300E-22
 -1        35-7.32583E-06-4.63171E-06 0.00000E+00-2.58180E-08-1.55639E-22 1.39738E-22
 -1        36-7.54096E-06-4.09931E-06 0.00000E+00-2.80394E-08-6.61652E-23 1.63039E-22
 -1        37-7.62132E-06-3.60553E-06 0.00000E+00-3.01047E-08 1.29093E-22-5.39399E-23
 -1        38-7.46941E-06-3.15405E-06 0.00000E+00-4.91115E-08 1.23745E-22 2.21710E-23
 -1        39-7.01063E-06-2.79099E-06 0.00000E+00-6.94722E-08-2.06280E-23-7.96908E-23
 -1        40-6.19802E-06-2.48526E-06 0.00000E+00-5.84413E-08 1.96266E-22 1.30623E-22
 -1        41-5.06243E-06-2.24079E-06 0.00000E+00-6.78053E-08 2.54259E-22 2.24982E-22
 -1        42-4.41388E-07-1.00558E-05 0.00000E+00 1.69517E-06-2.57482E-24 5.69833E-23
 -1        43-5.35313E-06-9.11530E-06 0.00000E+00-1.95551E-07-2.67368E-22 3.03494E-23
 -1        44-5.98626E-06-8.13549E-06 0.00000E+00 4.57787E-08 1.54076E-22 8.22687E-23
 -1        45-6.27940E-06-7.59526E-06 0.00000E+00-3.60837E-09-1.65093E-22 6.29787E-23
 -1        46-6.37018E-06-7.05942E-06 0.00000E+00 1.03307E-09 6.20150E-22-1.65327E-22
 -1        47-6.47427E-06-6.54174E-06 0.00000E+00-2.25654E-09 7.91535E-22 2.34112E-23
 -1        48-6.64573E-06-6.00988E-06 0.00000E+00-3.73704E-09 1.30561E-21-9.88452E-23
 -1        49-6.89043E-06-5.46266E-06 0.00000E+00-1.31415E-08-1.59908E-22-5.67210E-23
 -1        50-7.17226E-06-4.90884E-06 0.00000E+00-2.69559E-08 1.03811E-21 1.05640E-22
 -1        51-7.43577E-06-4.36436E-06 0.00000E+00-3.45376E-08 1.70445E-21 1.16206E-22
 -1        52-7.58561E-06-3.84779E-06 0.00000E+00-4.86889E-08 7.17505E-22 2.50111E-22
 -1        53-7.54655E-06-3.37222E-06 0.00000E+00-5.32536E-08-1.04629E-21-2.90326E-22
 -1        54-7.24264E-06-2.96554E-06 0.00000E+00-6.71514E-08-2.27761E-22-3.38820E-22
 -1        55-6.61423E-06-2.62395E-06 0.00000E+00-6.34858E-08-3.15237E-22 3.96070E-22
 -1        56-5.64451E-06-2.38774E-06 0.00000E+00-6.56199E-08-1.36076E-21 1.94700E-23
 -1        57-4.39100E-06-2.19756E-06 0.00000E+00-4.02682E-08-3.83689E-22-1.94961E-22
 -1        58-3.37893E-06-2.17883E-06 0.00000E+00-6.77877E-11 2.35101E-22 1.88716E-22
 -1        59-3.05352E-06-2.27687E-06 0.00000E+00-3.13826E-09-1.35425E-22 2.21487E-23
 -1        60-2.75362E-06-2.34976E-06 0.00000E+00 3.20730E-09-4.68713E-22 2.62392E-22
 -1        61-3.56678E-06-2.18085E-06 0.00000E+00-7.46610E-08 6.17431E-22-7.69732E-23
 -1        62-3.21163E-06-2.22360E-06 0.00000E+00-5.45004E-09 7.90591E-22-1.55438E-22
 -1        63-2.90646E-06-2.31338E-06 0.00000E+00-4.45875E-09 8.39906E-22 3.48728E-22
 -1        64-2.59551E-06-2.39218E-06 0.00000E+00 2.62187E-09 5.44922E-22-4.27699E-22
 -1        65-2.43634E-06-2.42367E-06 0.00000E+00 1.54669E-09-1.31225E-21-2.14615E-22
 -1        66-2.42134E-06-2.48323E-06 0.00000E+00-5.84347E-09-5.68086E-22 2.00682E-22
 -1        67-2.42610E-06-2.54301E-06 0.00000E+00 4.32553E-09 1.23991E-21 3.07841E-22
 -1        68-2.43204E-06-2.42498E-06 0.00000E+00 1.19220E-09-1.67699E-22-2.58976E-22
 -1        69-2.42555E-06-2.45175E-06 0.00000E+00-3.63706E-09-8.23255E-22-4.99087E-22
 -1        70-2.40817E-06-2.51969E-06 0.00000E+00-4.80250E-10 1.23934E-21 7.08345E-23
 -1        71-2.39689E-06-2.49569E-06 0.00000E+00 7.52264E-09 4.78831E-22-4.44853E-22
 -1        72-3.45081E-06-2.21224E-06 0.00000E+00 2.36455E-07-1.57049E-22 3.09148E-22
 -1        73-4.17150E-06-2.05794E-06 0.00000E+00 4.74449E-07 5.84963E-22 1.21439E-22
 -1        74-4.86322E-06-1.93427E-06 0.00000E+00 7.83880E-07-6.77401E-22 8.32080E-24
 -1        75-5.70176E-06-1.85094E-06 0.00000E+00 1.21331E-06-2.63447E-22-1.01325E-23
 -1        76-6.70666E-06-1.77732E-06 0.00000E+00 1.79675E-06 1.42102E-21 2.53822E-22
 -1        77-7.85782E-06-1.73872E-06 0.00000E+00 2.53416E-06-4.70017E-22-2.43912E-22
 -1        78-9.08403E-06-1.75303E-06 0.00000E+00 3.40629E-06 7.22413E-22 2.57087E-22
 -1        79-1.03406E-05-1.85830E-06 0.00000E+00 4.41742E-06-3.87202E-23 6.89120E-23
 -1        80-1.15648E-05-2.06133E-06 0.00000E+00 5.54756E-06-6.86521E-22-6.98635E-23
 -1        81-1.27150E-05-2.38307E-06 0.00000E+00 6.77633E-06 8.64198E-22 4.97860E-22
 -1        82-1.37470E-05-2.83381E-06 0.00000E+00 8.07105E-06 3.93709E-22-1.48849E-22
 -1        83-1.46031E-05-3.41396E-06 0.00000E+00 9.37962E-06 2.33988E-22 6.63405E-23
 -1        84-1.52111E-05-4.10591E-06 0.00000E+00 1.06221E-05 5.37663E-22-3.25948E-24
 -1        85-1.54942E-05-4.87839E-06 0.00000E+00 1.16990E-05-6.38865E-23-1.54925E-22
 -1        86-1.53877E-05-5.68150E-06 0.00000E+00 1.25048E-05 2.63894E-22 4.75469E-23
 -1        87-1.48699E-05-6.44264E-06 0.00000E+00 1.29499E-05-5.90872E-23-8.76259E-24
 -1        88-1.39837E-05-7.10131E-06 0.00000E+00 1.29673E-05-4.89677E-23 1.79858E-22
 -1        89-1.27465E-05-7.56457E-06 0.00000E+00 1.26018E-05 7.42213E-23-3.27565E-23
 -1        90-1.09843E-05-7.46883E-06 0.00000E+00 1.11691E-05 2.77858E-23-2.20066E-22
 -1        91-2.96883E-06-2.32812E-06 0.00000E+00 1.42114E-07-1.46359E-21-2.48034E-22
 -1        92-3.81147E-06-2.14070E-06 0.00000E+00 3.65722E-07-6.50300E-22-2.97642E-22
 -1        93-4.50728E-06-2.02436E-06 0.00000E+00 6.32539E-07 2.86875E-22 1.29574E-23
 -1        94-5.28097E-06-1.90012E-06 0.00000E+00 9.94788E-07-2.99035E-22 8.87841E-23
 -1        95-6.20490E-06-1.80353E-06 0.00000E+00 1.49371E-06-5.09151E-22-9.92139E-22
 -1        96-7.29037E-06-1.73696E-06 0.00000E+00 2.14937E-06 1.74948E-22 1.91127E-22
 -1        97-8.48233E-06-1.73037E-06 0.00000E+00 2.95554E-06 4.13384E-22-1.54526E-22
 -1        98-9.73691E-06-1.78319E-06 0.00000E+00 3.89654E-06 9.13329E-22 4.48247E-22
 -1        99-1.09813E-05-1.92955E-06 0.00000E+00 4.96669E-06 1.34533E-21-1.04443E-22
 -1       100-1.21718E-05-2.18753E-06 0.00000E+00 6.14820E-06 8.47133E-22-5.92867E-23
 -1       101-1.32649E-05-2.57150E-06 0.00000E+00 7.41338E-06 1.24410E-21-1.73693E-22
 -1       102-1.42103E-05-3.08696E-06 0.00000E+00 8.72012E-06-2.49586E-22 1.77625E-22
 -1       103-1.49429E-05-3.72717E-06 0.00000E+00 1.00022E-05 1.13988E-23 2.87982E-22
 -1       104-1.53870E-05-4.46517E-06 0.00000E+00 1.11693E-05 3.40043E-22 3.84719E-23
 -1       105-1.54671E-05-5.26017E-06 0.00000E+00 1.21185E-05-1.79946E-22 4.07327E-22
 -1       106-1.51412E-05-6.05646E-06 0.00000E+00 1.27509E-05 9.94550E-23-1.93198E-22
 -1       107-1.44185E-05-6.78274E-06 0.00000E+00 1.29850E-05 6.11353E-23 1.39723E-22
 -1       108-1.33522E-05-7.36484E-06 0.00000E+00 1.28121E-05-2.78770E-22-6.41667E-24
 -1       109-1.20393E-05-7.75580E-06 0.00000E+00 1.21304E-05-2.25145E-22-2.21206E-22
 -1       110-1.11839E-05-7.10770E-06 0.00000E+00 1.12791E-05-1.65322E-23 1.19260E-22
 -1       111-7.22014E-06-1.16265E-05 0.00000E+00 1.14752E-05-5.68256E-23 2.13381E-23
 -1       112-4.24478E-06-1.08336E-05 0.00000E+00 7.96974E-06-5.22360E-23-9.66754E-24
 -1       113-2.46408E-06-9.62970E-06 0.00000E+00 4.70427E-06 8.12727E-25 7.00515E-23
 -1       114-1.75708E-06-7.52354E-06 0.00000E+00 2.27751E-06-4.65722E-24 4.68662E-25
 -1       115-1.79779E-06-5.47288E-06 0.00000E+00 8.13619E-07 2.82140E-23 1.69068E-23
 -1       116-2.04152E-06-3.97210E-06 0.00000E+00 1.39414E-07-4.93436E-24-8.75361E-24
 -1       117-2.23605E-06-3.12343E-06 0.00000E+00-8.17659E-08 9.88509E-24 2.90108E-23
 -1       118-1.07480E-05-1.01286E-05 0.00000E+00 1.26765E-05-3.72413E-25 2.43913E-22
 -1       119-5.01979E-06-1.14965E-05 0.00000E+00 9.54829E-06 4.64231E-23 4.84215E-23
 -1       120-3.01435E-06-1.06263E-05 0.00000E+00 6.33648E-06-1.12079E-23 6.15309E-23
 -1       121-1.90829E-06-8.72926E-06 0.00000E+00 3.38919E-06 1.43473E-23-6.60924E-23
 -1       122-1.65937E-06-6.53782E-06 0.00000E+00 1.45910E-06-9.29722E-24-7.17651E-23
 -1       123-1.84170E-06-4.70955E-06 0.00000E+00 4.21947E-07 2.44241E-23-1.11577E-23
 -1       124-2.10735E-06-3.52892E-06 0.00000E+00-1.27717E-09 4.04766E-24-1.40994E-23
 -1       125-2.30585E-06-2.81049E-06 0.00000E+00-6.73520E-08-1.30342E-24 9.56816E-24
 -1       126-2.70587E-06-2.68704E-06 0.00000E+00 4.59853E-07-2.25836E-24 4.32345E-24
 -1       127-2.86354E-06-2.84998E-06 0.00000E+00 6.80635E-07 1.24992E-24-8.38945E-24
 -1       128-2.89323E-06-2.88098E-06 0.00000E+00 7.32409E-07-2.22673E-26 3.25962E-25
 -1       129-2.85656E-06-2.83824E-06 0.00000E+00 6.71549E-07-8.74175E-26 8.08637E-24
 -1       130-2.78441E-06-2.77013E-06 0.00000E+00 5.60447E-07 2.62795E-25-4.79107E-25
 -1       131-2.68512E-06-2.67305E-06 0.00000E+00 4.01405E-07-6.63572E-25 7.26251E-24
 -1       132-2.59219E-06-2.59094E-06 0.00000E+00 2.61565E-07-1.94067E-24-8.38672E-25
 -1       133-2.51996E-06-2.50883E-06 0.00000E+00 1.30133E-07-1.20778E-26-2.01612E-25
 -1       134-2.46874E-06-2.43681E-06 0.00000E+00 3.21992E-08 2.46494E-25 2.38796E-24
 -1       135-2.41947E-06-2.44198E-06 0.00000E+00 7.29606E-10 1.55217E-24-2.11972E-24
 -1       136-2.39545E-06-2.45130E-06 0.00000E+00-2.70903E-09 1.52429E-24-8.38906E-25
 -1       137-2.53026E-06-2.62101E-06 0.00000E+00 2.17598E-07 3.07865E-25-1.70735E-24
 -1       138-2.78012E-06-2.80032E-06 0.00000E+00 5.89335E-07 5.88968E-26 2.93917E-23
 -1       139-2.88591E-06-2.86062E-06 0.00000E+00 7.08721E-07 9.94928E-25-2.08960E-23
 -1       140-2.87723E-06-2.85499E-06 0.00000E+00 7.04203E-07 2.16408E-25-8.37243E-24
 -1       141-2.81812E-06-2.80116E-06 0.00000E+00 6.16628E-07 5.44036E-25-3.83683E-24
 -1       142-2.73263E-06-2.72026E-06 0.00000E+00 4.82627E-07-7.24159E-25-2.73220E-24
 -1       143-2.63684E-06-2.63186E-06 0.00000E+00 3.32868E-07-2.28764E-25-4.68503E-24
 -1       144-2.54803E-06-2.54473E-06 0.00000E+00 1.92183E-07 4.97376E-24 9.08014E-24
 -1       145-2.46147E-06-2.49052E-06 0.00000E+00 8.08438E-08 1.78690E-24-7.12414E-25
 -1       146-2.44041E-06-2.44344E-06 0.00000E+00 2.16744E-08 4.79317E-24 3.81590E-24
 -1       147-2.42998E-06-2.45331E-06 0.00000E+00 9.24371E-09 3.64439E-24-3.12997E-25
 -1       148-2.43626E-06-2.39765E-06 0.00000E+00 1.75601E-08 3.39721E-24-3.48404E-25
 -1       149-2.48711E-06-2.72589E-06 0.00000E+00 4.55322E-07 1.98862E-24-2.44697E-25
 -1       150-2.67400E-06-2.59025E-06 0.00000E+00 2.24301E-07 1.67502E-25-4.00332E-25
 -1       151-5.90107E-07-2.33243E-06 0.00000E+00-1.12241E-06 2.87124E-25-2.00706E-26
 -1       152-2.98080E-06-3.32244E-09 0.00000E+00-1.75025E-06 8.63164E-28 5.03829E-26
 -1       153-3.82521E-06-8.74360E-10 0.00000E+00-1.33770E-06-4.24367E-26 5.68542E-27
 -1       154-4.33504E-06-1.91892E-09 0.00000E+00-8.97183E-07 5.79047E-26 4.44039E-26
 -1       155-4.72778E-06 5.52234E-09 0.00000E+00-5.61253E-07 8.95797E-26 2.08892E-25
 -1       156-5.13397E-06 1.41016E-11 0.00000E+00-2.08334E-07-5.43761E-26-7.00608E-25
 -1       157-5.46804E-06-2.32842E-11 0.00000E+00 7.39179E-08 4.29774E-26 4.69755E-25
 -1       158-5.85492E-06 7.42490E-12 0.00000E+00 4.04778E-07-1.06954E-25-4.78687E-25
 -1       159-6.17898E-06-1.94037E-11 0.00000E+00 7.04607E-07 1.65513E-25 1.57601E-25
 -1       160-6.57512E-06-7.68838E-11 0.00000E+00 1.11990E-06 1.99313E-25 6.75804E-25
 -1       161-6.95146E-06 6.39654E-11 0.00000E+00 1.56274E-06 1.59197E-25-1.48747E-24
 -1       162-7.53429E-06-3.37046E-10 0.00000E+00 2.25341E-06-3.82839E-25 1.23955E-24
 -1       163-8.27380E-06 1.91499E-10 0.00000E+00 3.03885E-06 1.59919E-24-2.94250E-24
 -1       164-9.66556E-06 2.03102E-10 0.00000E+00 4.20843E-06-7.48651E-25-2.68744E-25
 -1       165-1.14698E-05-2.33503E-10 0.00000E+00 5.32874E-06-5.72621E-26-1.73365E-24
 -1       166-1.43441E-05-3.48425E-09 0.00000E+00 6.48661E-06-3.91712E-24 8.51729E-25
 -1       167-1.69577E-05 6.28070E-08 0.00000E+00 6.92788E-06-1.89020E-24-2.60560E-24
 -1       168-1.93489E-05-2.43455E-09 0.00000E+00 7.05666E-06 4.91392E-25 2.43223E-24
 -1       169-2.04037E-05-5.35482E-09 0.00000E+00 6.90197E-06-2.08554E-25 1.02476E-23
 -1       170-2.02039E-05-7.12221E-09 0.00000E+00 6.67633E-06 2.43534E-24-1.12429E-23
 -1       171-1.84841E-05 1.03561E-07 0.00000E+00 6.63910E-06-1.01593E-23-1.14903E-23
 -1       172-1.56416E-05-3.01902E-09 0.00000E+00 7.05963E-06 4.05735E-24-6.43134E-25
 -1       173-1.20820E-05 7.19829E-08 0.00000E+00 8.91701E-06 4.36853E-24 1.50151E-24
 -1       174-9.73656E-06 3.17568E-09 0.00000E+00 1.05446E-05-6.10955E-24-6.88776E-25
 -1       175-2.29735E-06 5.82987E-09 0.00000E+00-2.08065E-06-1.65575E-25 6.26211E-26
 -1       176-3.44492E-06-4.95409E-10 0.00000E+00-1.53946E-06 2.09032E-26-2.93300E-26
 -1       177-4.09377E-06-5.70399E-10 0.00000E+00-1.11455E-06-2.44858E-26 1.59230E-26
 -1       178-4.59190E-06 2.61343E-09 0.00000E+00-6.83978E-07 2.57059E-26-2.94072E-26
 -1       179-4.93805E-06 4.05587E-11 0.00000E+00-3.77349E-07-2.85525E-26 1.24792E-25
 -1       180-5.30982E-06-1.16604E-11 0.00000E+00-6.08059E-08-1.23800E-26 4.19467E-25
 -1       181-5.67309E-06-1.86354E-11 0.00000E+00 2.45053E-07 2.01834E-26-1.83373E-25
 -1       182-6.02559E-06-1.57457E-12 0.00000E+00 5.55980E-07 4.61712E-26 9.87746E-25
 -1       183-6.38626E-06 1.76956E-11 0.00000E+00 9.12206E-07-1.96083E-25-1.41575E-25
 -1       184-6.76552E-06-5.31795E-11 0.00000E+00 1.33727E-06 1.45937E-25 8.80382E-27
 -1       185-7.23920E-06 7.19271E-10 0.00000E+00 1.90737E-06-5.47026E-25 8.22140E-25
 -1       186-7.88129E-06 4.72093E-10 0.00000E+00 2.64203E-06-3.56903E-25 3.53635E-24
 -1       187-8.91705E-06 6.73897E-10 0.00000E+00 3.62479E-06-8.65868E-25-8.38164E-25
 -1       188-1.05108E-05 1.11311E-10 0.00000E+00 4.78469E-06 1.62807E-24 1.82011E-24
 -1       189-1.28912E-05-7.11772E-10 0.00000E+00 5.95151E-06 3.47141E-24-2.55270E-24
 -1       190-1.57183E-05-6.79034E-09 0.00000E+00 6.77651E-06 1.90364E-24-1.44193E-24
 -1       191-1.82873E-05-4.25895E-09 0.00000E+00 6.99874E-06-1.94467E-24 5.16856E-24
 -1       192-2.00260E-05-2.43556E-09 0.00000E+00 6.98232E-06-2.58269E-24-7.90917E-25
 -1       193-2.04417E-05-8.81188E-09 0.00000E+00 6.77932E-06 4.65117E-24-1.70420E-24
 -1       194-1.93955E-05-5.83849E-09 0.00000E+00 6.64878E-06 2.75815E-25-2.64590E-24
 -1       195-1.72328E-05-1.01894E-08 0.00000E+00 6.72842E-06-7.25786E-24 6.58804E-24
 -1       196-1.38863E-05-3.93909E-09 0.00000E+00 7.86438E-06-9.63033E-24-3.11580E-24
 -1       197-1.14153E-05-3.97788E-08 0.00000E+00 9.52204E-06 8.83510E-24 1.42504E-24
 -1       198-2.05997E-06-7.95505E-09 0.00000E+00 1.47269E-05 2.20262E-25 5.43604E-25
 -1       199-7.10734E-06-7.09034E-06 0.00000E+00 3.96127E-06 2.55432E-23-4.01963E-23
 -1       200-1.29301E-05-5.26676E-06 0.00000E+00 8.38297E-06 1.35902E-23-3.12535E-22
 -1       201-9.96482E-06-4.71533E-06 0.00000E+00 5.58188E-06-2.05479E-22-1.26526E-22
 -1       202-3.86072E-06-2.11930E-06 0.00000E+00 5.49598E-07 1.65962E-24-2.71676E-24
 -1       203-1.70405E-05-1.53404E-06 0.00000E+00 7.23239E-06-7.71740E-24 1.06657E-22
 -1       204-3.36148E-06-1.79035E-06 0.00000E+00-8.07321E-08 1.72803E-26 1.58966E-24
 -1       205-2.94318E-06-1.99285E-06 0.00000E+00-2.07288E-07-1.49140E-24 1.99247E-24
 -1       206-7.68038E-06-3.51558E-06 0.00000E+00 2.45213E-06 2.06580E-22 8.50873E-23
 -1       207-1.26628E-05-5.70374E-06 0.00000E+00 8.55287E-06 4.80458E-23 3.51065E-23
 -1       208-4.52332E-06-2.25013E-06 0.00000E+00-8.99889E-09 3.48385E-22 2.18935E-22
 -1       209-7.29347E-06-3.64417E-06 0.00000E+00 4.58411E-06-8.99165E-24-2.73434E-23
 -1       210-5.02492E-06-1.80060E-06 0.00000E+00 1.29774E-06 1.97327E-25-8.80144E-25
 -1       211-8.07146E-06-6.01058E-06 0.00000E+00 3.29087E-06 1.55401E-22-1.06498E-23
 -1       212-3.95481E-06-7.52695E-06 0.00000E+00 8.30713E-06-7.96200E-24-5.50893E-24
 -1       213-4.55299E-06-1.04253E-06 0.00000E+00 1.64347E-07 7.19865E-27 7.70859E-25
 -1       214-3.48202E-06-2.74271E-06 0.00000E+00 6.98899E-07-1.58499E-24 4.48576E-24
 -1       215-6.87739E-06-5.08922E-06 0.00000E+00 7.37369E-06 5.40925E-23 6.57356E-24
 -1       216-5.47863E-06-2.37792E-06 0.00000E+00 3.58724E-07 1.68482E-22 7.22882E-23
 -1       217-4.33664E-06-6.81789E-06 0.00000E+00 6.75510E-06-1.03829E-22-7.70720E-24
 -1       218-1.49192E-05-4.17360E-06 0.00000E+00 9.04114E-06 1.49211E-23-7.91973E-23
 -1       219-3.70430E-06-2.23732E-06 0.00000E+00-9.29704E-08-4.15652E-22 3.96889E-23
 -1       220-3.08593E-06-2.30684E-06 0.00000E+00-3.90383E-08-7.64056E-22-5.66219E-23
 -1       221-4.93807E-06-1.21522E-06 0.00000E+00 6.62153E-07 7.63090E-26 2.48249E-24
 -1       222-3.79907E-06-1.24829E-06 0.00000E+00-3.13024E-07 4.74215E-25-1.76418E-24
 -1       223-5.23632E-06-5.11734E-06 0.00000E+00 1.10846E-05 2.45562E-23 3.59217E-24
 -1       224-3.73874E-06-1.85624E-06 0.00000E+00 2.73829E-07-6.51661E-25-1.09402E-24
 -1       225-4.74703E-06-2.97953E-06 0.00000E+00 2.02020E-06 8.69460E-24-5.31644E-24
 -1       226-3.32120E-06-2.30482E-06 0.00000E+00-5.03380E-08 5.76205E-22 1.34356E-22
 -1       227-1.53184E-05-2.23117E-06 0.00000E+00 7.05263E-06 4.13362E-23 2.58542E-23
 -1       228-2.97696E-06-1.65543E-06 0.00000E+00-6.91902E-07 2.03974E-25 2.74712E-25
 -1       229-3.45071E-06-6.76221E-07 0.00000E+00-1.21744E-06-6.31304E-26-2.84893E-25
 -1       230-7.53092E-06-6.87179E-06 0.00000E+00 2.84320E-06 8.06007E-23-9.29602E-23
 -1       231-1.13431E-05-5.29871E-06 0.00000E+00 7.13206E-06-3.98427E-24-1.40367E-22
 -1       232-1.56482E-05-1.76299E-06 0.00000E+00 6.92724E-06 9.06860E-23-2.47106E-24
 -1       233-8.77823E-06-3.86534E-06 0.00000E+00 4.02199E-06-1.68347E-23-9.20338E-23
 -1       234-7.17136E-06-4.73766E-06 0.00000E+00 5.47842E-06-4.20614E-23 9.04082E-24
 -1       235-1.47546E-05-3.20892E-06 0.00000E+00 7.43304E-06-1.91234E-23-1.31504E-22
 -1       236-1.44058E-05-4.76333E-06 0.00000E+00 9.09358E-06 1.00167E-22 4.65912E-23
 -1       237-6.76394E-06-2.80244E-06 0.00000E+00 1.42039E-06 6.82012E-22 2.31616E-23
 -1       238-7.81141E-06-4.88022E-06 0.00000E+00 2.53205E-06-3.39146E-23-9.59015E-25
 -1       239-1.18873E-05-3.10607E-06 0.00000E+00 6.64530E-06 2.89591E-23 2.37436E-24
 -1       240-1.12699E-05-2.94163E-06 0.00000E+00 6.44932E-06-2.04165E-24 2.09760E-23
 -1       241-1.08441E-05-4.71148E-06 0.00000E+00 6.07171E-06 1.90565E-24 3.36072E-23
 -1       242-9.49891E-06-6.04446E-06 0.00000E+00 5.23435E-06 7.47347E-23 1.38807E-22
 -1       243-7.53991E-06-4.17948E-06 0.00000E+00 1.82995E-06-2.42994E-22 2.42327E-22
 -1       244-1.18693E-05-4.95782E-06 0.00000E+00 6.75593E-06-7.03147E-23-7.27080E-23
 -1       245-5.07306E-06-2.18617E-06 0.00000E+00 1.67739E-06 8.59224E-25 1.85290E-24
 -1       246-3.82287E-06-2.96021E-06 0.00000E+00 1.14428E-06 4.36551E-25 1.61138E-24
 -1       247-4.21673E-06-2.35327E-06 0.00000E+00 1.00073E-06 5.20186E-24-1.22809E-25
 -1       248-2.59921E-06-2.27636E-06 0.00000E+00-1.16442E-07 1.34980E-25-7.12492E-26
 -1       249-6.48962E-06-5.14259E-06 0.00000E+00 5.85889E-06-1.20280E-23-3.78644E-23
 -1       250-9.27557E-06-3.92250E-06 0.00000E+00 5.99615E-06-3.39202E-23 6.06609E-24
 -1       251-9.71564E-06-3.46915E-06 0.00000E+00 6.78503E-06 3.57339E-23 2.09627E-23
 -1       252-3.03274E-06-2.35513E-06 0.00000E+00 1.16176E-08-1.14757E-22 2.49359E-22
 -1       253-2.88888E-06-2.37909E-06 0.00000E+00-4.15630E-08 4.90356E-22-7.01073E-23
 -1       254-1.68975E-05-1.24342E-06 0.00000E+00 7.02298E-06 4.60980E-23 6.28488E-23
 -1       255-1.50418E-05-2.55575E-06 0.00000E+00 7.09359E-06-3.13533E-23-8.11075E-23
 -1       256-1.58907E-05-2.45809E-06 0.00000E+00 7.45014E-06-8.37786E-23-7.41900E-23
 -1       257-2.90971E-06-1.88737E-06 0.00000E+00-4.14755E-07-2.09748E-24-8.48368E-25
 -1       258-3.49709E-06-1.27579E-06 0.00000E+00-5.89147E-07 1.26803E-25 5.44481E-25
 -1       259-3.33967E-06-1.65545E-06 0.00000E+00-2.78111E-07 5.86139E-25 1.50266E-24
 -1       260-7.71338E-06-3.92924E-06 0.00000E+00 2.38748E-06-3.59507E-22-4.36958E-22
 -1       261-7.50678E-06-4.10636E-06 0.00000E+00 1.33276E-06-3.69064E-23 9.58679E-23
 -1       262-1.64811E-05-9.07735E-07 0.00000E+00 6.74845E-06-2.28214E-23 5.74638E-24
 -1       263-1.35210E-05-2.77860E-06 0.00000E+00 6.92584E-06 8.97296E-24 9.23510E-24
 -1       264-1.41728E-05-1.08090E-06 0.00000E+00 6.48179E-06-2.68243E-25 3.08374E-23
 -1       265-3.10986E-06-2.76085E-06 0.00000E+00 5.36424E-07 1.73837E-24-2.74559E-24
 -1       266-2.78739E-06-2.99883E-06 0.00000E+00 3.92818E-07-6.93028E-25-4.21586E-24
 -1       267-9.71625E-06-5.77570E-06 0.00000E+00 5.44947E-06-1.49404E-22-1.37079E-22
 -1       268-1.07638E-05-5.54968E-06 0.00000E+00 6.20437E-06 1.38519E-22 5.17724E-23
 -1       269-1.15070E-05-4.78318E-06 0.00000E+00 6.35815E-06 2.57203E-23-5.54606E-24
 -1       270-8.77721E-06-6.14777E-06 0.00000E+00 4.39463E-06-5.28380E-23 1.70784E-22
 -1       271-8.36616E-06-6.48166E-06 0.00000E+00 4.09413E-06 1.39148E-22 1.08891E-22
 -1       272-7.70556E-06-6.51731E-06 0.00000E+00 2.82491E-06-1.18880E-22 7.64978E-23
 -1       273-3.74946E-06-6.59577E-06 0.00000E+00 6.05774E-06-1.85042E-23 7.06345E-24
 -1       274-4.13864E-06-6.93922E-06 0.00000E+00 6.45990E-06 4.87230E-23-1.41228E-24
 -1       275-4.20773E-06-7.33835E-06 0.00000E+00 7.27812E-06-5.39730E-23 6.02476E-24
 -1       276-5.29235E-06-6.18141E-06 0.00000E+00 7.06001E-06 3.09712E-23 1.43392E-24
 -1       277-5.50491E-06-5.97562E-06 0.00000E+00 8.34850E-06 1.77184E-24 9.13668E-24
 -1       278-1.02784E-05-6.02386E-06 0.00000E+00 7.83269E-06 1.59903E-23 4.14991E-23
 -1       279-1.12949E-05-7.37934E-06 0.00000E+00 9.83786E-06-1.05413E-23-4.07942E-23
 -1       280-4.13011E-06-2.22969E-06 0.00000E+00-8.49905E-08 2.17820E-22-1.40276E-23
 -1       281-3.51485E-06-2.26559E-06 0.00000E+00-7.46096E-08 2.10109E-22-2.85424E-22
 -1       282-3.83372E-06-2.24896E-06 0.00000E+00-4.55330E-08-8.01196E-23-3.36321E-22
 -1       283-4.11940E-06-3.61026E-07 0.00000E+00-8.61330E-07 3.43530E-25 3.63757E-25
 -1       284-3.69976E-06-2.95664E-07 0.00000E+00-1.31459E-06-3.37778E-25 9.17317E-26
 -1       285-2.88656E-06-8.06923E-07 0.00000E+00-1.67367E-06-1.62213E-25-5.18233E-25
 -1       286-3.09593E-06-2.27908E-06 0.00000E+00-1.81498E-08 4.44832E-22 1.95261E-22
 -1       287-3.37822E-06-2.26202E-06 0.00000E+00-6.73669E-08 3.10156E-23 9.09908E-23
 -1       288-3.78855E-06-2.23304E-06 0.00000E+00-8.29153E-08-3.35906E-22-9.66085E-23
 -1       289-3.43536E-06-2.22864E-06 0.00000E+00-6.43025E-08 3.35520E-22-2.17782E-22
 -1       290-1.11694E-05-3.74461E-06 0.00000E+00 6.33354E-06 1.84283E-22-4.34372E-23
 -1       291-1.27003E-05-4.59678E-06 0.00000E+00 8.25002E-06-1.10258E-22 3.26370E-22
 -1       292-1.06141E-05-5.07618E-06 0.00000E+00 6.37144E-06 1.63851E-22-1.49698E-22
 -1       293-1.19603E-05-4.17926E-06 0.00000E+00 7.31394E-06-1.25108E-22 2.70407E-23
 -1       294-7.79421E-06-2.62310E-06 0.00000E+00 2.77729E-06 1.00473E-22 3.38255E-22
 -1       295-9.46200E-06-2.99730E-06 0.00000E+00 4.41159E-06 1.27109E-23-1.22376E-22
 -1       296-8.16176E-06-3.57155E-06 0.00000E+00 3.23256E-06-1.80098E-22-1.16599E-22
 -1       297-8.56197E-06-2.76567E-06 0.00000E+00 3.52474E-06 1.57507E-22 1.21219E-24
 -1       298-1.45031E-05-5.60216E-06 0.00000E+00 1.06565E-05-7.67917E-23 3.56997E-24
 -1       299-1.37447E-05-5.06339E-06 0.00000E+00 8.84330E-06-1.25616E-22-8.57535E-23
 -1       300-1.39447E-05-5.23649E-06 0.00000E+00 9.80353E-06 1.32720E-22 1.48164E-22
 -1       301-1.43533E-05-5.45905E-06 0.00000E+00 1.03552E-05 1.85552E-22 2.96856E-22
 -1       302-6.82599E-06-7.16196E-06 0.00000E+00 1.39183E-06-1.15189E-22 7.17479E-23
 -1       303-7.26640E-06-6.15711E-06 0.00000E+00 1.68119E-06-7.63211E-23-1.20811E-22
 -1       304-7.04371E-06-6.67548E-06 0.00000E+00 1.46471E-06-1.80143E-22-1.02361E-22
 -1       305-7.39249E-06-5.08208E-06 0.00000E+00 1.38006E-06 5.46642E-23 1.17096E-22
 -1       306-7.93178E-06-5.39771E-06 0.00000E+00 2.88000E-06 2.66635E-23 2.09090E-22
 -1       307-7.33165E-06-5.60397E-06 0.00000E+00 1.53944E-06-4.69537E-22-1.82481E-23
 -1       308-7.67706E-06-4.46190E-06 0.00000E+00 2.12747E-06 1.08497E-22-1.84401E-22
 -1       309-7.46098E-06-4.59046E-06 0.00000E+00 1.23666E-06 2.27707E-22 4.87339E-23
 -1       310-1.21385E-05-5.34566E-06 0.00000E+00 7.82549E-06 1.84543E-22-2.37564E-22
 -1       311-1.33717E-05-4.95134E-06 0.00000E+00 9.08936E-06-8.33751E-23-1.06840E-22
 -1       312-9.37005E-06-4.27684E-06 0.00000E+00 4.79768E-06-1.52797E-22 3.47727E-22
 -1       313-1.03361E-05-3.33505E-06 0.00000E+00 5.35429E-06-3.32602E-22-3.14694E-23
 -1       314-1.39876E-05-5.62268E-06 0.00000E+00 1.04351E-05-2.51107E-23 5.83682E-23
 -1       315-1.48163E-05-4.43671E-06 0.00000E+00 9.13463E-06 2.17253E-23-6.58150E-23
 -1       316-1.43676E-05-5.65773E-06 0.00000E+00 1.06916E-05-1.70326E-22-6.80182E-24
 -1       317-1.03229E-05-5.73945E-06 0.00000E+00 6.10059E-06 2.30560E-23 7.31649E-23
 -1       318-1.23143E-05-5.13921E-06 0.00000E+00 7.41478E-06 2.49361E-22-4.83860E-23
 -1       319-1.12973E-05-5.51116E-06 0.00000E+00 6.84839E-06-8.69642E-23-4.74093E-24
 -1       320-6.92879E-06-3.13071E-06 0.00000E+00 7.78879E-07 1.98608E-22 3.52826E-24
 -1       321-5.42982E-06-2.43189E-06 0.00000E+00 4.30524E-08-8.15577E-23-2.39906E-23
 -1       322-6.24489E-06-2.57592E-06 0.00000E+00 9.10086E-07 1.17988E-22 1.36376E-22
 -1       323-6.40981E-06-2.78832E-06 0.00000E+00 4.18735E-07 2.61009E-22 6.85976E-23
 -1       324-8.98464E-06-5.42458E-06 0.00000E+00 4.59698E-06-1.14399E-23 3.89669E-24
 -1       325-9.57529E-06-5.68603E-06 0.00000E+00 5.36753E-06 2.35741E-22 9.47824E-23
 -1       326-1.45223E-05-3.95041E-06 0.00000E+00 8.06274E-06 4.50727E-23-6.39109E-23
 -1       327-1.59607E-05-2.76505E-06 0.00000E+00 7.91796E-06-5.00880E-23-2.32942E-23
 -1       328-1.53558E-05-3.33985E-06 0.00000E+00 8.08995E-06-6.79062E-24 1.60002E-24
 -1       329-3.18011E-06-3.94790E-06 0.00000E+00 1.30425E-06-1.27632E-23-5.81204E-24
 -1       330-5.71732E-06-3.44275E-06 0.00000E+00 3.24554E-06 2.42765E-24 2.10288E-23
 -1       331-4.74492E-06-5.57427E-06 0.00000E+00 3.97030E-06 1.14587E-24-5.74185E-24
 -1       332-3.71960E-06-4.73873E-06 0.00000E+00 2.45331E-06 1.77722E-23-4.58219E-24
 -1       333-4.09028E-06-6.63537E-06 0.00000E+00 9.99483E-06-1.55815E-23-5.90166E-24
 -1       334-9.86309E-09-8.65666E-06 0.00000E+00 1.14676E-05 3.77424E-23 4.68599E-25
 -1       335-3.04178E-06-9.97665E-06 0.00000E+00 6.19370E-06-3.10050E-23 7.32647E-24
 -1       336-1.70762E-06-1.02153E-05 0.00000E+00 8.27291E-06-2.00319E-23 2.47839E-24
 -1       337-3.72955E-06-2.41755E-06 0.00000E+00 6.62524E-07 2.91731E-25 3.11280E-24
 -1       338-4.36011E-06-1.71119E-06 0.00000E+00 5.94029E-07-7.57302E-26-1.83431E-24
 -1       339-5.01668E-06-1.44813E-06 0.00000E+00 9.54320E-07-5.37084E-25 1.58398E-24
 -1       340-4.31421E-06-2.00839E-06 0.00000E+00 8.01675E-07 1.70063E-24 5.74032E-24
 -1       341-1.69013E-05-6.69560E-07 0.00000E+00 6.88945E-06-3.91165E-23-4.45074E-23
 -1       342-1.88484E-05-2.52869E-07 0.00000E+00 6.85912E-06-1.13612E-23-4.43433E-24
 -1       343-1.84905E-05-2.37026E-07 0.00000E+00 6.86104E-06-3.22035E-23-8.81550E-24
 -1       344-1.33237E-05-4.10971E-06 0.00000E+00 7.20765E-06 5.38864E-23-3.61314E-23
 -1       345-1.34574E-05-4.59419E-06 0.00000E+00 7.84504E-06-4.78879E-23 1.48194E-22
 -1       346-9.24957E-06-3.01553E-06 0.00000E+00 8.69424E-06 9.73478E-24-2.16107E-23
 -1       347-1.43339E-05-1.31022E-06 0.00000E+00 6.94322E-06 4.30166E-23-3.64543E-23
 -1       348-1.23787E-05-1.81823E-06 0.00000E+00 7.44715E-06-2.51802E-23-1.25946E-23
 -1       349-9.48784E-06-3.51580E-06 0.00000E+00 5.82795E-06 6.50728E-24-1.15767E-23
 -1       350-6.61263E-06-6.25652E-06 0.00000E+00 5.91782E-06 3.65032E-23 1.13247E-23
 -1       351-7.17918E-06-3.05614E-06 0.00000E+00 1.89203E-06 6.94039E-23-1.51664E-22
 -1       352-7.28896E-06-3.53116E-06 0.00000E+00 1.11081E-06-3.33957E-22-5.06342E-23
 -1       353-7.35782E-06-7.10641E-06 0.00000E+00 3.18728E-06 1.37950E-23 3.07244E-23
 -1       354-5.94133E-06-8.15268E-06 0.00000E+00 2.10883E-06 3.33495E-22-1.90031E-23
 -1       355-6.53269E-06-7.65270E-06 0.00000E+00 1.59852E-06 2.37353E-22 7.14564E-23
 -1       356-2.90940E-06-3.32819E-06 0.00000E+00 6.15938E-07 6.46552E-24-5.41419E-24
 -1       357-3.84067E-06-1.96524E-06 0.00000E+00 4.27878E-07 5.53784E-25 5.59637E-24
 -1       358-4.13745E-06-1.47396E-06 0.00000E+00 2.22386E-07-1.08623E-25-1.94742E-24
 -1       359-4.78559E-06-1.08862E-06 0.00000E+00 4.07595E-07 1.32995E-25 3.73590E-24
 -1       360-4.28859E-06-1.55762E-06 0.00000E+00 4.11512E-07 9.85242E-26-3.98317E-24
 -1       361-6.35622E-06-2.24792E-06 0.00000E+00 1.41712E-06 4.16073E-23-5.61564E-22
 -1       362-7.04171E-06-2.40149E-06 0.00000E+00 2.04129E-06-4.80158E-23-1.09403E-22
 -1       363-7.10960E-06-6.07704E-06 0.00000E+00 5.19107E-06 9.77436E-23-4.99960E-23
 -1       364-8.81948E-06-5.83045E-06 0.00000E+00 5.20369E-06-1.45036E-23 8.15269E-23
 -1       365-1.13403E-05-3.55035E-06 0.00000E+00 6.30246E-06 4.64266E-23-3.33039E-23
 -1       366-9.24061E-06-4.75103E-06 0.00000E+00 5.81873E-06 1.02500E-22-7.18211E-23
 -1       367-3.61817E-06-1.55689E-06 0.00000E+00-1.21986E-07-3.09006E-25-2.11758E-24
 -1       368-2.89196E-06-2.16328E-06 0.00000E+00-1.01847E-08 1.64258E-25-7.58193E-25
 -1       369-9.49423E-06-1.86040E-06 0.00000E+00 4.90959E-06 3.11192E-24-6.57248E-24
 -1       370-1.19636E-05-1.56523E-06 0.00000E+00 5.94378E-06-1.78508E-24 3.81160E-24
 -1       371-4.72734E-06-5.34219E-06 0.00000E+00 5.16534E-06-1.43407E-23 4.58796E-23
 -1       372-4.35952E-06-6.32351E-06 0.00000E+00 5.71958E-06 7.31816E-24-2.72730E-23
 -1       373-4.49736E-06-8.07453E-06 0.00000E+00 3.96735E-06-3.68518E-23 2.27695E-23
 -1       374-7.43648E-06-2.75264E-06 0.00000E+00 1.06622E-05 6.94497E-25 5.23246E-24
 -1       375-6.76610E-06-4.31583E-06 0.00000E+00 9.65955E-06-1.44764E-23 3.50267E-24
 -1       376-1.40088E-05-3.86017E-06 0.00000E+00 7.66095E-06-9.17338E-24-5.55767E-23
 -1       377-1.29268E-05-3.97560E-06 0.00000E+00 7.38871E-06-2.36986E-23 8.06072E-26
 -1       378-8.50443E-06-6.40972E-06 0.00000E+00 4.49392E-06 9.77348E-23 7.01471E-23
 -1       379-6.59390E-06-1.67621E-06 0.00000E+00 2.72906E-06 2.11243E-24-1.51136E-24
 -1       380-7.73408E-06-1.87328E-06 0.00000E+00 3.78846E-06 3.94697E-24 2.66469E-24
 -1       381-3.54289E-06-1.81558E-06 0.00000E+00 9.63826E-08 1.57804E-25-7.90596E-25
 -1       382-3.23290E-06-2.25139E-06 0.00000E+00 3.11344E-07 1.53021E-25-4.64494E-24
 -1       383-3.09214E-06-2.19102E-06 0.00000E+00 1.66383E-07-2.16935E-24 4.79337E-24
 -1       384-3.36528E-06-2.45295E-06 0.00000E+00 5.35144E-07-4.17714E-25 3.95524E-25
 -1       385-3.32937E-06-2.34173E-06 0.00000E+00 4.41922E-07 7.12705E-25-9.79176E-24
 -1       386-1.67066E-05-1.79033E-06 0.00000E+00 7.23683E-06 3.01292E-23 4.43003E-23
 -1       387-1.81797E-05-4.43880E-07 0.00000E+00 6.83249E-06 2.42973E-24-1.29785E-23
 -1       388-3.28152E-06-1.17139E-06 0.00000E+00-1.00714E-06 2.85570E-25-1.36671E-24
 -1       389-4.25657E-06-6.65889E-07 0.00000E+00-4.74781E-07-4.03643E-26 6.38667E-25
 -1       390-3.79504E-06-8.25663E-07 0.00000E+00-7.63323E-07-3.13353E-25 6.27192E-25
 -1       391-5.00450E-06-5.42125E-07 0.00000E+00 1.03278E-07 7.86080E-26 1.42229E-24
 -1       392-4.25673E-06-1.06785E-06 0.00000E+00-7.02972E-08-3.42725E-27-4.44969E-24
 -1       393-4.67275E-06-5.68117E-07 0.00000E+00-1.71674E-07 1.22269E-25-9.00872E-25
 -1       394-2.47962E-06-2.26536E-06 0.00000E+00-3.80704E-07-1.01300E-24 1.04994E-24
 -1       395-2.10765E-06-1.86800E-06 0.00000E+00-1.14040E-06-8.55642E-25 3.73944E-25
 -1       396-5.98091E-06-9.68636E-07 0.00000E+00 1.49997E-06-3.75270E-24-2.87767E-25
 -1       397-5.55963E-06-6.26457E-07 0.00000E+00 7.01057E-07 3.84800E-25 1.14777E-24
 -1       398-5.78391E-06-7.59057E-07 0.00000E+00 1.06932E-06-5.82426E-27 3.02079E-24
 -1       399-5.31305E-06-5.59986E-07 0.00000E+00 3.99519E-07 2.62621E-25-1.18343E-24
 -1       400-6.18835E-06-1.29356E-06 0.00000E+00 2.04239E-06-3.64164E-24-5.57798E-24
 -1       401-4.72438E-06-2.16768E-06 0.00000E+00 2.50759E-07 2.39947E-22 1.03920E-23
 -1       402-3.76552E-06-2.22568E-06 0.00000E+00 6.03968E-08 1.95901E-22 4.34605E-22
 -1       403-3.30256E-06-2.60988E-06 0.00000E+00 5.80464E-07 1.62868E-25 1.37844E-23
 -1       404-3.91662E-06-1.45732E-06 0.00000E+00 3.05541E-08 3.04905E-25 2.16536E-24
 -1       405-1.34000E-05-3.05562E-06 0.00000E+00 6.71590E-06 2.86217E-23 1.20382E-23
 -1       406-1.33083E-05-3.64156E-06 0.00000E+00 6.85004E-06-4.18385E-23-1.81119E-23
 -1       407-1.41217E-05-4.67010E-06 0.00000E+00 9.07266E-06-1.95882E-23 5.34244E-23
 -1       408-1.53800E-05-3.18316E-06 0.00000E+00 7.95401E-06-1.71696E-22 1.03029E-22
 -1       409-8.26356E-06-4.48015E-06 0.00000E+00 3.39655E-06-1.22316E-22-8.78166E-23
 -1       410-8.60039E-06-4.95145E-06 0.00000E+00 3.97777E-06 9.43001E-23-7.65458E-23
 -1       411-2.77295E-06-2.38288E-06 0.00000E+00-3.04147E-08-1.18916E-22 2.21942E-22
 -1       412-3.13914E-06-2.31750E-06 0.00000E+00-5.37754E-08-1.99229E-23-4.08648E-22
 -1       413-3.88068E-06-8.12735E-06 0.00000E+00 6.07393E-06 3.33696E-23 2.04346E-23
 -1       414-5.62806E-06-2.15613E-06 0.00000E+00 8.29282E-07-3.79264E-23-2.91427E-22
 -1       415-2.76716E-06-2.35903E-06 0.00000E+00-6.97870E-09 4.83991E-23 8.33913E-23
 -1       416-4.63803E-06-2.25062E-06 0.00000E+00-1.21148E-07 6.98004E-22-1.75581E-22
 -1       417-2.53702E-06-2.25783E-06 0.00000E+00-2.20556E-07 1.54458E-24-4.22107E-24
 -1       418-7.91963E-06-4.09785E-06 0.00000E+00 2.78781E-06 1.40096E-22-3.35092E-22
 -1       419-1.41605E-05-1.94070E-06 0.00000E+00 6.71447E-06-7.70658E-23-3.63091E-23
 -1       420-2.94438E-06-1.96314E-06 0.00000E+00 1.47042E-05-5.22465E-24 1.40946E-24
 -1       421-1.29579E-05-5.98522E-06 0.00000E+00 1.05589E-05 6.19395E-23 6.79381E-24
 -1       422-4.37001E-06-2.54606E-06 0.00000E+00 1.30250E-06-5.61002E-24-2.90540E-24
 -1       423-2.57680E-06-2.32791E-06 0.00000E+00-3.38113E-08-3.34418E-24 4.04794E-24
 -1       424-8.38668E-06-4.20246E-06 0.00000E+00 6.12043E-06 7.62090E-23-1.05271E-22
 -1       425-2.77226E-06-2.41822E-06 0.00000E+00-1.28939E-08 4.31736E-22-1.37505E-22
 -1       426-1.59744E-05-2.05326E-06 0.00000E+00 7.18623E-06-4.72683E-24 1.94213E-22
 -1       427-3.25066E-06-1.58066E-06 0.00000E+00-4.65542E-07-3.03053E-25-2.72488E-25
 -1       428-1.48526E-05-1.46238E-06 0.00000E+00 6.76070E-06-1.35888E-23 1.98668E-23
 -1       429-2.83789E-06-2.83263E-06 0.00000E+00 4.29599E-07 6.40748E-25 6.65056E-24
 -1       430-1.05693E-05-5.39536E-06 0.00000E+00 5.97360E-06-7.69536E-23 3.70417E-23
 -1       431-8.26477E-06-6.39288E-06 0.00000E+00 3.79022E-06 7.13816E-23 1.48729E-22
 -1       432-3.40281E-06-6.23838E-06 0.00000E+00 6.78153E-06 1.30627E-22 1.16892E-23
 -1       433-4.88339E-06-6.54042E-06 0.00000E+00 7.64057E-06-5.56552E-23 7.07700E-24
 -1       434-1.06335E-05-8.25178E-06 0.00000E+00 9.71221E-06-9.65805E-24 3.06858E-23
 -1       435-3.81319E-06-2.24972E-06 0.00000E+00-7.19245E-08-7.38313E-22-2.77544E-22
 -1       436-4.08435E-06-1.97662E-07 0.00000E+00-1.01575E-06-2.68501E-26 1.13738E-26
 -1       437-3.23011E-06-3.07943E-07 0.00000E+00-1.61715E-06 5.75019E-27-1.29278E-25
 -1       438-3.08745E-06-2.27590E-06 0.00000E+00-1.07997E-08 1.85996E-22-5.22523E-23
 -1       439-3.26120E-06-2.25074E-06 0.00000E+00-3.59015E-08-1.25167E-21-2.89602E-22
 -1       440-3.42553E-06-2.20680E-06 0.00000E+00-3.41130E-08-1.93984E-23-4.43797E-23
 -1       441-3.09344E-06-2.29545E-06 0.00000E+00-3.06941E-08-2.24920E-22 9.10012E-23
 -1       442-3.23529E-06-2.28158E-06 0.00000E+00-5.35366E-08-1.17049E-23-1.19183E-22
 -1       443-3.41312E-06-2.24130E-06 0.00000E+00-6.36809E-08 7.17278E-22 1.99274E-22
 -1       444-3.53497E-06-2.25229E-06 0.00000E+00-8.07154E-08 2.80793E-22 6.60375E-23
 -1       445-3.73740E-06-2.22604E-06 0.00000E+00-8.69118E-08 1.37017E-22-4.87378E-23
 -1       446-3.60512E-06-2.21387E-06 0.00000E+00-7.34015E-08-1.87269E-21-2.43993E-23
 -1       447-3.77423E-06-2.26044E-06 0.00000E+00-7.81578E-08-2.80767E-22-5.31191E-23
 -1       448-1.05599E-05-4.23667E-06 0.00000E+00 5.95802E-06-9.46911E-23 2.35016E-22
 -1       449-1.15827E-05-3.93441E-06 0.00000E+00 6.81207E-06 2.82149E-22-4.88839E-22
 -1       450-1.12706E-05-4.62773E-06 0.00000E+00 6.83451E-06 5.74927E-24-1.60889E-22
 -1       451-1.03004E-05-4.87859E-06 0.00000E+00 5.96824E-06-3.49543E-22-2.45807E-22
 -1       452-1.19317E-05-3.07765E-06 0.00000E+00 6.56439E-06 5.98635E-23 1.26589E-22
 -1       453-1.28270E-05-3.51629E-06 0.00000E+00 7.69185E-06-6.84858E-23-2.26181E-22
 -1       454-1.36051E-05-4.00668E-06 0.00000E+00 8.79911E-06 2.99677E-23 1.25616E-24
 -1       455-1.23469E-05-4.36132E-06 0.00000E+00 7.77411E-06 4.30827E-22-1.35107E-22
 -1       456-1.19954E-05-4.93595E-06 0.00000E+00 7.67319E-06 2.03632E-24 9.38616E-23
 -1       457-1.09867E-05-5.17433E-06 0.00000E+00 6.74994E-06-2.80629E-23-1.49803E-22
 -1       458-7.73735E-06-3.08544E-06 0.00000E+00 2.63906E-06-1.85368E-22 3.49580E-23
 -1       459-8.18177E-06-2.67916E-06 0.00000E+00 3.13946E-06 6.72278E-22 2.15687E-22
 -1       460-8.39461E-06-3.18513E-06 0.00000E+00 3.40313E-06 9.36435E-23 1.46844E-22
 -1       461-7.89425E-06-3.52877E-06 0.00000E+00 2.83020E-06-7.60212E-22 3.12908E-23
 -1       462-7.86714E-06-2.19612E-06 0.00000E+00 2.68603E-06 4.29037E-22 6.92131E-23
 -1       463-8.85406E-06-2.28009E-06 0.00000E+00 3.49549E-06-5.39443E-22-1.06245E-22
 -1       464-9.91530E-06-2.44375E-06 0.00000E+00 4.43580E-06 5.30051E-23 4.22840E-22
 -1       465-9.03033E-06-2.86286E-06 0.00000E+00 3.95701E-06-2.25329E-22-2.70109E-22
 -1       466-9.13290E-06-3.44332E-06 0.00000E+00 4.23035E-06-2.49095E-22-4.49621E-22
 -1       467-8.48717E-06-3.70026E-06 0.00000E+00 3.62313E-06-1.70451E-22-5.49999E-23
 -1       468-1.47840E-05-5.53189E-06 0.00000E+00 1.13686E-05 8.28855E-23-5.68081E-23
 -1       469-1.41536E-05-5.33160E-06 0.00000E+00 1.00838E-05-2.81045E-22-5.05825E-23
 -1       470-1.46374E-05-5.03374E-06 0.00000E+00 1.07017E-05 1.29590E-22 1.40411E-22
 -1       471-1.46072E-05-5.97243E-06 0.00000E+00 1.17357E-05 2.61384E-22 2.10239E-22
 -1       472-1.44237E-05-5.52248E-06 0.00000E+00 1.05138E-05-2.08302E-22 1.69084E-22
 -1       473-1.44006E-05-5.14192E-06 0.00000E+00 9.82956E-06-2.43871E-23 1.17386E-23
 -1       474-1.40689E-05-4.90978E-06 0.00000E+00 8.97690E-06-1.84006E-22 1.79957E-22
 -1       475-1.39948E-05-5.22498E-06 0.00000E+00 9.55614E-06 2.49044E-22 1.40165E-22
 -1       476-1.33354E-05-5.15489E-06 0.00000E+00 8.62020E-06 1.71360E-23-3.14851E-22
 -1       477-1.33890E-05-5.22187E-06 0.00000E+00 9.05690E-06 3.74702E-22-1.67924E-22
 -1       478-7.14251E-06-7.01696E-06 0.00000E+00 2.13238E-06 1.64516E-24 1.56536E-22
 -1       479-6.93082E-06-6.91745E-06 0.00000E+00 1.43312E-06-2.25779E-22 1.19506E-22
 -1       480-7.35572E-06-6.60287E-06 0.00000E+00 2.15439E-06 4.95776E-23 7.24548E-23
 -1       481-7.61737E-06-6.70452E-06 0.00000E+00 2.83013E-06-6.35464E-23-1.56511E-23
 -1       482-6.55599E-06-7.24189E-06 0.00000E+00 6.89948E-07 2.04897E-22 1.10188E-22
 -1       483-6.72595E-06-6.73798E-06 0.00000E+00 7.29231E-07 1.57313E-22-1.40774E-22
 -1       484-6.90943E-06-6.21613E-06 0.00000E+00 8.40910E-07 1.29205E-23 3.96069E-24
 -1       485-7.15849E-06-6.41703E-06 0.00000E+00 1.57257E-06 2.66741E-22-3.66414E-23
 -1       486-7.65742E-06-6.08120E-06 0.00000E+00 2.49000E-06-4.90726E-22-6.67054E-23
 -1       487-7.89407E-06-6.27564E-06 0.00000E+00 3.05743E-06-4.26215E-22 5.19980E-23
 -1       488-7.04703E-06-5.66875E-06 0.00000E+00 7.70649E-07 2.51747E-23 2.39752E-22
 -1       489-7.29881E-06-5.88513E-06 0.00000E+00 1.60126E-06 3.03083E-22-3.76436E-23
 -1       490-7.20825E-06-5.13206E-06 0.00000E+00 6.88191E-07-2.88363E-22 6.42029E-23
 -1       491-7.36123E-06-5.34181E-06 0.00000E+00 1.45078E-06 3.72485E-22-6.29327E-23
 -1       492-7.59913E-06-4.98050E-06 0.00000E+00 1.95439E-06-2.10746E-22-1.21486E-22
 -1       493-7.87673E-06-5.13313E-06 0.00000E+00 2.69845E-06-2.86907E-23 4.09032E-23
 -1       494-7.61708E-06-5.50326E-06 0.00000E+00 2.20948E-06-2.17640E-22 1.34124E-22
 -1       495-8.00483E-06-5.70776E-06 0.00000E+00 3.08408E-06-3.41844E-22-1.04026E-22
 -1       496-7.37065E-06-4.61294E-06 0.00000E+00 6.10756E-07 4.39607E-22 1.66434E-23
 -1       497-7.42506E-06-4.83649E-06 0.00000E+00 1.29417E-06-8.74225E-23 1.36234E-22
 -1       498-7.48066E-06-4.10367E-06 0.00000E+00 6.43797E-07-5.26315E-22 1.72004E-22
 -1       499-7.48961E-06-4.35541E-06 0.00000E+00 1.26279E-06 9.69421E-23-1.03452E-22
 -1       500-7.51188E-06-4.15184E-06 0.00000E+00 1.56390E-06-1.51153E-22 3.01048E-23
 -1       501-7.63497E-06-4.31483E-06 0.00000E+00 1.97780E-06 8.02566E-23-2.32442E-23
 -1       502-7.55890E-06-4.52645E-06 0.00000E+00 1.67688E-06-1.32697E-22-5.26427E-23
 -1       503-7.74412E-06-4.66111E-06 0.00000E+00 2.32129E-06-3.15474E-22-1.09571E-22
 -1       504-1.42243E-05-4.51865E-06 0.00000E+00 9.82243E-06-1.98205E-23-3.80628E-23
 -1       505-1.30500E-05-4.74953E-06 0.00000E+00 8.66508E-06 2.07129E-22-3.27036E-22
 -1       506-1.36681E-05-5.07369E-06 0.00000E+00 9.44629E-06 3.44364E-22 2.93277E-22
 -1       507-1.25357E-05-5.29329E-06 0.00000E+00 8.10779E-06 1.54191E-23 4.63578E-23
 -1       508-1.27172E-05-5.12523E-06 0.00000E+00 8.42893E-06-1.92827E-23-6.19747E-23
 -1       509-1.17465E-05-5.30701E-06 0.00000E+00 7.48007E-06-3.90178E-22 1.51269E-22
 -1       510-1.09525E-05-2.71340E-06 0.00000E+00 5.46706E-06 2.32065E-23-2.12112E-22
 -1       511-9.91829E-06-3.14121E-06 0.00000E+00 4.86915E-06 4.35915E-22 1.62184E-22
 -1       512-1.07716E-05-3.51234E-06 0.00000E+00 5.83033E-06-8.77205E-22 1.76017E-22
 -1       513-9.68138E-06-4.47425E-06 0.00000E+00 5.17999E-06 4.55608E-22-1.58318E-22
 -1       514-9.85464E-06-3.81618E-06 0.00000E+00 5.08353E-06 1.30692E-22 1.94794E-22
 -1       515-9.08852E-06-4.04769E-06 0.00000E+00 4.40036E-06-3.69538E-22-9.91396E-24
 -1       516-1.41027E-05-6.32240E-06 0.00000E+00 1.17611E-05-7.00018E-24-2.32644E-23
 -1       517-1.44205E-05-5.63415E-06 0.00000E+00 1.06841E-05 7.16525E-23 9.20525E-23
 -1       518-1.33390E-05-6.53253E-06 0.00000E+00 1.14599E-05-3.92688E-23-8.34365E-23
 -1       519-1.41554E-05-5.66245E-06 0.00000E+00 1.05740E-05 1.98472E-23 1.03943E-22
 -1       520-1.44009E-05-4.86860E-06 0.00000E+00 9.71569E-06 8.89441E-23 9.77215E-24
 -1       521-1.48461E-05-4.31987E-06 0.00000E+00 9.09440E-06 1.52577E-22-7.13769E-23
 -1       522-1.45446E-05-5.00740E-06 0.00000E+00 9.86954E-06 1.90014E-23 1.22854E-23
 -1       523-1.45980E-05-4.60499E-06 0.00000E+00 9.12131E-06-1.28844E-22-1.25687E-22
 -1       524-9.90636E-06-5.87489E-06 0.00000E+00 5.66248E-06 3.27760E-22 5.26856E-23
 -1       525-1.08076E-05-5.61576E-06 0.00000E+00 6.47975E-06 6.97820E-22 3.14501E-22
 -1       526-1.10152E-05-5.50433E-06 0.00000E+00 6.51750E-06 4.52608E-23 5.13163E-23
 -1       527-1.01000E-05-5.78013E-06 0.00000E+00 5.75072E-06 6.01693E-23-3.54801E-23
 -1       528-1.08207E-05-5.50573E-06 0.00000E+00 6.60126E-06 3.04080E-22-2.60414E-22
 -1       529-1.16971E-05-5.40546E-06 0.00000E+00 7.31605E-06 4.11355E-24-1.72947E-22
 -1       530-1.25919E-05-5.17996E-06 0.00000E+00 7.87317E-06-2.58882E-22-3.88627E-23
 -1       531-1.18004E-05-5.31733E-06 0.00000E+00 7.13706E-06-1.71738E-22 7.25473E-23
 -1       532-1.20744E-05-5.02989E-06 0.00000E+00 7.06787E-06 3.54909E-22 1.80814E-22
 -1       533-1.13032E-05-5.24091E-06 0.00000E+00 6.49343E-06-1.69847E-23 1.14873E-23
 -1       534-6.81252E-06-2.97133E-06 0.00000E+00 1.10117E-06 5.16211E-22 7.31137E-23
 -1       535-6.67247E-06-2.95192E-06 0.00000E+00 5.92942E-07 7.78959E-23-4.66698E-23
 -1       536-6.30217E-06-2.69216E-06 0.00000E+00 6.65828E-07-7.73861E-22 5.27615E-24
 -1       537-6.50661E-06-2.68274E-06 0.00000E+00 1.15886E-06-3.57476E-22-4.29016E-22
 -1       538-7.14057E-06-3.14621E-06 0.00000E+00 3.66037E-07-1.38424E-22 4.90737E-23
 -1       539-6.65009E-06-2.79160E-06 0.00000E+00 1.75452E-07-4.18958E-22 2.10301E-22
 -1       540-5.77446E-06-2.45940E-06 0.00000E+00-1.79753E-08 8.34515E-23 1.01995E-22
 -1       541-5.93230E-06-2.61030E-06 0.00000E+00 2.24268E-07-7.90844E-23-2.81547E-22
 -1       542-5.44334E-06-2.42100E-06 0.00000E+00 1.97906E-07 2.86485E-22 1.72629E-22
 -1       543-5.86727E-06-2.47784E-06 0.00000E+00 6.24978E-07 5.26399E-22-1.89536E-22
 -1       544-8.51610E-06-5.71388E-06 0.00000E+00 3.94733E-06-7.22390E-22-5.16097E-23
 -1       545-9.28346E-06-5.54899E-06 0.00000E+00 4.97476E-06 2.06824E-23-1.49646E-22
 -1       546-9.17399E-06-5.89355E-06 0.00000E+00 4.88994E-06 3.43854E-22 7.95400E-23
 -1       547-8.40348E-06-6.07229E-06 0.00000E+00 3.84713E-06-2.46025E-22 5.15817E-23
 -1       548-9.47193E-06-5.06843E-06 0.00000E+00 5.08731E-06 3.61207E-22-2.91529E-23
 -1       549-1.00891E-05-5.37505E-06 0.00000E+00 5.86008E-06-8.68399E-23 1.64958E-22
 -1       550-9.95275E-06-5.72182E-06 0.00000E+00 5.73027E-06 2.63129E-22 7.37150E-23
 -1       551-9.10891E-06-6.10303E-06 0.00000E+00 4.84608E-06-1.11700E-22 7.69144E-23
 -1       552-1.46158E-05-3.55862E-06 0.00000E+00 7.72642E-06 8.95921E-23 1.51323E-22
 -1       553-1.49271E-05-3.64667E-06 0.00000E+00 8.07850E-06 6.51195E-23-9.87129E-24
 -1       554-1.55886E-05-2.86595E-06 0.00000E+00 7.74960E-06-5.26544E-23-2.58652E-23
 -1       555-1.53031E-05-2.82724E-06 0.00000E+00 7.45348E-06 7.70793E-23 2.78217E-22
 -1       556-1.44261E-05-4.32796E-06 0.00000E+00 8.54535E-06-4.35533E-23 1.19913E-22
 -1       557-1.50405E-05-3.85988E-06 0.00000E+00 8.57706E-06 4.89838E-23-4.86611E-23
 -1       558-1.53950E-05-3.45199E-06 0.00000E+00 8.43651E-06-2.14900E-23 6.37369E-23
 -1       559-1.56411E-05-3.06892E-06 0.00000E+00 8.00887E-06-6.72153E-23-3.48299E-23
 -1       560-1.64813E-05-2.11324E-06 0.00000E+00 7.55965E-06-1.01493E-23-8.66257E-23
 -1       561-1.64396E-05-1.98448E-06 0.00000E+00 7.37170E-06 2.36932E-23 6.30839E-23
 -1       562-2.74294E-06-5.23033E-06 0.00000E+00 1.69488E-06-2.63991E-24-1.31111E-23
 -1       563-4.14101E-06-5.16839E-06 0.00000E+00 3.18131E-06-2.16975E-23 1.83110E-23
 -1       564-3.25961E-06-6.60173E-06 0.00000E+00 3.20805E-06 3.29121E-24-1.13719E-23
 -1       565-2.58411E-06-4.09441E-06 0.00000E+00 7.42473E-07 8.47370E-24-5.47923E-24
 -1       566-3.37940E-06-4.34380E-06 0.00000E+00 1.85631E-06 2.37410E-23-3.33539E-23
 -1       567-3.98429E-06-3.51642E-06 0.00000E+00 1.68770E-06-1.26100E-23 1.26376E-23
 -1       568-5.15602E-06-3.20230E-06 0.00000E+00 2.61007E-06-3.83473E-24-9.75668E-24
 -1       569-4.74076E-06-4.13879E-06 0.00000E+00 2.86716E-06 4.25252E-24 3.16545E-24
 -1       570-6.41305E-06-3.54827E-06 0.00000E+00 3.90234E-06 1.84996E-24-4.90464E-24
 -1       571-6.03727E-06-4.59249E-06 0.00000E+00 4.28535E-06-1.30950E-23 3.36680E-23
 -1       572-4.10757E-06-7.25182E-06 0.00000E+00 9.08832E-06-1.64185E-24 7.75762E-25
 -1       573-2.83510E-06-8.28195E-06 0.00000E+00 9.21366E-06 1.41302E-23-6.25750E-24
 -1       574-2.62137E-06-1.02660E-05 0.00000E+00 7.13144E-06-4.75821E-23-5.66400E-24
 -1       575-3.26471E-06-8.69668E-06 0.00000E+00 7.42849E-06-3.48263E-24 6.95465E-24
 -1       576-4.32116E-06-6.00527E-06 0.00000E+00 1.05603E-05-3.84050E-23-9.79063E-24
 -1       577-3.09653E-06-6.55828E-06 0.00000E+00 1.11590E-05-1.44293E-23 1.09032E-23
 -1       578-1.00293E-06-9.60369E-06 0.00000E+00 9.74387E-06 7.90004E-23-2.66152E-24
 -1       579 9.82762E-07-1.07739E-05 0.00000E+00 6.97255E-06-1.47466E-23 4.03567E-24
 -1       580-2.05986E-06-1.10064E-05 0.00000E+00 4.56223E-06-7.72688E-23-2.50233E-24
 -1       581-4.66061E-06-1.00597E-05 0.00000E+00 3.35633E-06 4.28501E-23 8.87429E-25
 -1       582-4.62544E-06-2.08549E-06 0.00000E+00 1.15263E-06-6.37764E-25-8.79937E-24
 -1       583-4.27646E-06-2.17279E-06 0.00000E+00 9.09513E-07 2.67091E-24 7.16095E-24
 -1       584-4.66469E-06-1.73653E-06 0.00000E+00 8.78017E-07 1.00692E-24-2.72276E-24
 -1       585-5.02362E-06-1.61973E-06 0.00000E+00 1.12785E-06 1.28639E-24-4.10995E-24
 -1       586-3.84625E-06-2.56404E-06 0.00000E+00 8.52572E-07 6.53027E-24 1.04953E-23
 -1       587-3.62120E-06-2.57702E-06 0.00000E+00 6.87354E-07-1.46810E-24 8.07746E-24
 -1       588-4.01289E-06-2.22399E-06 0.00000E+00 7.29397E-07-2.63861E-24-2.91424E-24
 -1       589-3.80624E-06-2.26029E-06 0.00000E+00 6.10184E-07-1.34164E-24-5.36550E-24
 -1       590-4.10361E-06-1.91912E-06 0.00000E+00 5.69882E-07-1.55734E-25 5.34265E-24
 -1       591-4.35110E-06-1.85317E-06 0.00000E+00 7.03796E-07 1.13010E-24-3.62586E-24
 -1       592-4.64915E-06-1.46720E-06 0.00000E+00 6.27699E-07 2.28465E-25 6.64017E-24
 -1       593-4.98722E-06-1.32957E-06 0.00000E+00 8.11190E-07-6.26185E-25 1.23656E-24
 -1       594-1.76700E-05-2.00231E-07 0.00000E+00 6.78760E-06 2.81000E-23-3.66332E-23
 -1       595-1.78217E-05-4.43296E-07 0.00000E+00 6.85636E-06 4.80176E-23-9.32851E-24
 -1       596-1.93187E-05 2.67374E-08 0.00000E+00 6.75512E-06-6.93146E-24 1.27958E-23
 -1       597-1.62577E-05-1.18898E-06 0.00000E+00 6.88341E-06-5.78251E-23-1.49975E-22
 -1       598-1.63282E-05-1.52055E-06 0.00000E+00 6.96649E-06 2.77188E-23-6.30313E-23
 -1       599-1.77131E-05-6.85613E-07 0.00000E+00 6.92502E-06 8.48430E-23 1.15113E-22
 -1       600-1.70702E-05-1.38540E-06 0.00000E+00 7.10389E-06-5.32852E-23-1.11007E-22
 -1       601-1.79237E-05-8.11848E-07 0.00000E+00 7.05105E-06-3.48516E-23 1.80723E-23
 -1       602-1.88229E-05-2.56782E-07 0.00000E+00 6.84585E-06-1.12237E-23 4.80155E-23
 -1       603-1.96269E-05 3.69983E-08 0.00000E+00 6.90103E-06-5.78882E-24-1.83040E-24
 -1       604-1.35641E-05-4.80241E-06 0.00000E+00 8.31504E-06-1.68237E-22-9.25179E-23
 -1       605-1.28774E-05-4.85953E-06 0.00000E+00 7.64039E-06-1.39630E-22 6.75265E-23
 -1       606-1.39821E-05-4.26832E-06 0.00000E+00 7.96349E-06-1.66079E-22-2.08134E-23
 -1       607-1.40301E-05-3.65503E-06 0.00000E+00 7.33121E-06-8.44424E-23 2.52968E-23
 -1       608-1.33689E-05-4.33105E-06 0.00000E+00 7.50528E-06-9.34845E-23-1.32819E-22
 -1       609-1.25820E-05-4.52593E-06 0.00000E+00 6.99847E-06-2.32720E-22 4.78564E-23
 -1       610-1.39825E-05-7.99948E-07 0.00000E+00 7.36281E-06-8.35971E-24-5.43546E-24
 -1       611-1.33871E-05-1.60103E-06 0.00000E+00 7.10919E-06 2.86467E-23-4.03960E-23
 -1       612-1.64171E-05-4.68946E-07 0.00000E+00 6.83636E-06 1.43447E-23-3.38216E-24
 -1       613-1.06591E-05-1.38232E-06 0.00000E+00 8.92370E-06-2.76361E-25-2.41146E-24
 -1       614-1.08369E-05-2.33973E-06 0.00000E+00 7.96191E-06-1.48252E-23-4.35279E-24
 -1       615-8.02299E-06-4.11199E-06 0.00000E+00 8.08308E-06-1.16161E-23 2.16965E-23
 -1       616-8.24666E-06-4.22700E-06 0.00000E+00 7.02971E-06 2.27499E-23-3.98930E-23
 -1       617-1.09851E-05-2.66193E-06 0.00000E+00 7.13701E-06 1.03223E-22-4.65626E-24
 -1       618-1.04858E-05-3.19068E-06 0.00000E+00 6.57090E-06 6.44986E-23-3.71602E-23
 -1       619-1.27234E-05-2.14235E-06 0.00000E+00 6.74313E-06-1.55790E-24-1.48821E-23
 -1       620-4.62276E-06-7.89200E-06 0.00000E+00 5.41416E-06-2.15603E-23 2.28871E-23
 -1       621-8.39038E-06-6.26326E-06 0.00000E+00 6.95594E-06-2.09426E-23 3.23881E-23
 -1       622-7.62411E-06-8.36447E-06 0.00000E+00 8.07185E-06-5.24669E-24 2.16285E-23
 -1       623-5.56353E-06-5.93229E-06 0.00000E+00 4.89482E-06 2.67640E-23-1.35240E-23
 -1       624-8.29643E-06-3.57764E-06 0.00000E+00 5.18623E-06 1.30479E-24 1.70902E-23
 -1       625-8.07964E-06-4.72922E-06 0.00000E+00 5.82244E-06-5.92856E-24-2.25114E-23
 -1       626-1.06440E-05-3.37393E-06 0.00000E+00 6.24456E-06 2.23386E-23 2.70770E-23
 -1       627-1.10252E-05-4.52093E-06 0.00000E+00 7.19802E-06 4.28985E-23-1.49047E-22
 -1       628-7.10902E-06-3.32102E-06 0.00000E+00 9.32327E-07 1.73240E-22 5.21105E-23
 -1       629-7.40096E-06-3.56995E-06 0.00000E+00 5.40579E-07 4.10800E-23 1.81751E-22
 -1       630-6.97547E-06-2.91634E-06 0.00000E+00 1.64695E-06 4.26952E-22-2.56730E-22
 -1       631-7.20907E-06-3.30611E-06 0.00000E+00 1.50988E-06-1.57666E-22-1.59120E-22
 -1       632-7.42097E-06-3.26413E-06 0.00000E+00 2.16645E-06-4.90283E-22 2.40984E-22
 -1       633-7.50418E-06-3.84603E-06 0.00000E+00 1.91768E-06-1.38395E-22-1.01294E-22
 -1       634-7.39128E-06-3.81718E-06 0.00000E+00 1.21259E-06-1.66302E-22-1.28947E-22
 -1       635-6.31356E-06-7.76038E-06 0.00000E+00 7.90717E-07 7.14617E-23 6.59788E-23
 -1       636-6.20838E-06-7.90407E-06 0.00000E+00 1.84106E-06-3.10737E-23-9.74982E-23
 -1       637-5.66202E-06-8.35992E-06 0.00000E+00 1.05827E-06-1.65823E-22-6.56695E-23
 -1       638-6.67859E-06-7.41015E-06 0.00000E+00 1.49622E-06-1.78829E-22 6.10210E-23
 -1       639-7.44409E-06-7.00803E-06 0.00000E+00 2.99877E-06 1.08137E-22-3.45561E-23
 -1       640-6.88455E-06-7.38331E-06 0.00000E+00 2.41801E-06-1.06057E-22-2.13034E-22
 -1       641-7.23158E-06-7.15651E-06 0.00000E+00 3.53135E-06 1.05522E-22 1.42477E-22
 -1       642-6.43127E-06-7.57925E-06 0.00000E+00 3.13117E-06 1.61584E-22-1.34844E-23
 -1       643-2.56006E-06-3.32385E-06 0.00000E+00 2.75751E-07-1.08138E-23 9.72121E-24
 -1       644-3.00440E-06-3.64344E-06 0.00000E+00 9.37945E-07 7.93056E-24-9.97131E-24
 -1       645-2.57794E-06-2.78973E-06 0.00000E+00 1.92722E-07-6.90451E-25 9.38849E-24
 -1       646-2.84368E-06-3.14466E-06 0.00000E+00 4.88328E-07-1.72974E-24-4.57281E-24
 -1       647-3.14368E-06-2.88952E-06 0.00000E+00 5.57058E-07-3.31811E-24 1.07299E-23
 -1       648-3.64217E-06-2.83012E-06 0.00000E+00 9.01505E-07 3.04695E-24 2.50371E-25
 -1       649-3.38118E-06-3.21249E-06 0.00000E+00 9.07258E-07 4.21883E-24-1.89849E-23
 -1       650-4.27572E-06-2.98463E-06 0.00000E+00 1.59074E-06-1.84544E-23-8.55965E-24
 -1       651-4.33534E-06-1.63099E-06 0.00000E+00 5.06157E-07-7.49122E-26-8.68447E-24
 -1       652-4.53650E-06-1.32498E-06 0.00000E+00 4.08685E-07 8.93041E-26 4.28817E-24
 -1       653-4.87217E-06-1.15068E-06 0.00000E+00 5.37802E-07-1.07041E-25 5.68586E-24
 -1       654-3.85775E-06-2.03658E-06 0.00000E+00 4.90551E-07-7.87038E-26-4.29164E-24
 -1       655-4.05999E-06-1.76261E-06 0.00000E+00 4.17403E-07-2.42399E-25-1.61797E-24
 -1       656-3.79643E-06-1.90632E-06 0.00000E+00 3.53332E-07 2.34022E-25-7.80846E-24
 -1       657-3.93431E-06-1.66618E-06 0.00000E+00 2.46310E-07-5.45954E-26-1.28924E-25
 -1       658-4.22401E-06-1.51213E-06 0.00000E+00 3.19333E-07-1.65580E-25-5.01509E-24
 -1       659-4.34515E-06-1.26052E-06 0.00000E+00 1.92854E-07 1.42826E-26-2.73975E-24
 -1       660-4.68128E-06-1.06352E-06 0.00000E+00 2.89133E-07 2.07639E-26 1.76498E-24
 -1       661-6.57724E-06-2.53799E-06 0.00000E+00 1.43604E-06-1.26286E-22-1.60993E-22
 -1       662-6.70395E-06-2.31637E-06 0.00000E+00 1.72184E-06-3.01884E-22 9.21877E-23
 -1       663-7.13609E-06-2.74447E-06 0.00000E+00 1.98459E-06 1.48427E-22 4.26477E-23
 -1       664-6.07208E-06-2.05844E-06 0.00000E+00 1.33882E-06-8.80879E-22-7.01603E-23
 -1       665-6.92523E-06-2.10329E-06 0.00000E+00 1.95091E-06 3.07243E-22 2.59211E-22
 -1       666-7.42837E-06-2.49000E-06 0.00000E+00 2.39769E-06-3.21995E-22-1.58397E-22
 -1       667-7.14291E-06-5.42494E-06 0.00000E+00 5.39323E-06-4.25088E-22 6.00716E-23
 -1       668-8.17139E-06-5.42099E-06 0.00000E+00 5.49537E-06-1.89183E-23 6.56035E-23
 -1       669-9.25119E-06-4.30305E-06 0.00000E+00 5.89517E-06-4.87485E-23-4.57370E-23
 -1       670-8.23810E-06-4.35136E-06 0.00000E+00 5.74873E-06 1.31859E-22-1.67672E-23
 -1       671-7.04675E-06-6.75044E-06 0.00000E+00 4.49652E-06-1.09998E-22-5.12793E-23
 -1       672-7.94135E-06-6.42381E-06 0.00000E+00 4.61187E-06 1.12638E-22 1.12608E-25
 -1       673-8.99342E-06-5.41361E-06 0.00000E+00 5.48771E-06 5.07700E-23-1.47878E-23
 -1       674-9.83857E-06-5.24982E-06 0.00000E+00 5.65473E-06-1.25567E-22-7.57696E-23
 -1       675-1.10737E-05-4.18566E-06 0.00000E+00 6.17672E-06-1.21134E-22 4.75835E-23
 -1       676-1.02855E-05-4.15820E-06 0.00000E+00 6.05960E-06 4.86094E-23 5.80810E-23
 -1       677-1.12918E-05-3.21773E-06 0.00000E+00 6.35928E-06 5.41681E-23-7.54239E-23
 -1       678-1.02486E-05-3.43434E-06 0.00000E+00 6.22004E-06 1.39740E-22-6.41980E-23
 -1       679-3.13048E-06-1.82460E-06 0.00000E+00-2.48577E-07-2.92271E-25-1.87730E-24
 -1       680-3.34556E-06-1.72464E-06 0.00000E+00-1.77493E-07 1.62660E-25 2.36306E-24
 -1       681-3.11991E-06-1.97627E-06 0.00000E+00-5.09587E-08-1.42707E-24 8.76622E-24
 -1       682-2.91831E-06-2.07994E-06 0.00000E+00-1.06924E-07 5.12787E-25 3.75891E-24
 -1       683-3.56700E-06-1.44918E-06 0.00000E+00-2.99768E-07 5.47008E-25 3.01743E-24
 -1       684-3.70993E-06-1.40374E-06 0.00000E+00-2.14801E-07-5.81863E-26-5.09298E-24
 -1       685-3.48606E-06-1.67156E-06 0.00000E+00-1.05293E-07 3.71281E-25 8.72658E-25
 -1       686-1.06845E-05-2.47338E-06 0.00000E+00 5.85667E-06 2.32465E-23 1.69460E-23
 -1       687-1.30915E-05-1.38766E-06 0.00000E+00 6.26695E-06 7.08179E-24-1.45116E-23
 -1       688-1.30259E-05-2.07574E-06 0.00000E+00 6.55013E-06 6.76969E-24 2.43959E-23
 -1       689-8.39234E-06-2.74965E-06 0.00000E+00 4.74261E-06-3.25986E-23-8.68199E-24
 -1       690-1.06799E-05-1.69780E-06 0.00000E+00 5.45246E-06-2.66504E-23 2.29848E-24
 -1       691-1.04796E-05-9.41470E-07 0.00000E+00 5.10017E-06-5.59847E-24 3.93626E-24
 -1       692-1.31377E-05-6.93886E-07 0.00000E+00 6.15325E-06 8.66047E-25-7.02247E-24
 -1       693-1.55992E-05-4.95244E-07 0.00000E+00 6.75630E-06 1.49139E-23-1.69908E-23
 -1       694-6.81885E-06-4.87464E-06 0.00000E+00 5.56172E-06 8.51666E-23 8.11059E-23
 -1       695-5.57096E-06-5.66149E-06 0.00000E+00 5.89824E-06 1.43332E-23-6.48422E-25
 -1       696-4.46910E-06-5.47252E-06 0.00000E+00 5.51789E-06-1.02829E-22 3.38053E-23
 -1       697-6.02333E-06-5.15638E-06 0.00000E+00 5.21542E-06-3.94088E-23 7.76436E-24
 -1       698-6.69323E-06-5.15484E-06 0.00000E+00 6.63183E-06 6.12768E-23-2.00336E-23
 -1       699-6.04794E-06-5.64214E-06 0.00000E+00 7.21226E-06-9.43541E-23-1.18335E-23
 -1       700-5.00083E-06-6.22799E-06 0.00000E+00 6.40411E-06-9.50777E-23 2.89814E-23
 -1       701-4.68697E-06-6.53146E-06 0.00000E+00 6.94894E-06-1.49402E-24-1.10264E-23
 -1       702-4.14653E-06-6.63203E-06 0.00000E+00 6.56614E-06-4.93639E-23 3.61516E-23
 -1       703-4.25119E-06-6.37138E-06 0.00000E+00 5.89225E-06 8.70999E-23-3.42631E-23
 -1       704-1.02016E-06-6.56405E-06 0.00000E+00 6.94021E-06 2.16976E-22-2.72481E-23
 -1       705-1.16247E-06-6.84897E-06 0.00000E+00 5.44854E-06 6.28441E-23-9.14584E-23
 -1       706-5.74987E-06-7.10606E-06 0.00000E+00 4.51762E-06 1.70701E-22-1.09959E-23
 -1       707-5.41475E-06-8.32051E-06 0.00000E+00 2.79592E-06-1.69740E-22 4.03175E-23
 -1       708-4.31472E-06-7.23156E-06 0.00000E+00 4.45353E-06-9.24820E-25-5.48783E-23
 -1       709-4.29524E-06-8.69285E-06 0.00000E+00 1.99016E-06-1.78986E-22 3.47260E-23
 -1       710-4.65212E-06-6.73392E-06 0.00000E+00 8.34501E-06 2.87732E-24 1.78317E-23
 -1       711-6.11464E-06-5.28663E-06 0.00000E+00 9.01398E-06-1.75963E-23-1.62876E-23
 -1       712-5.52144E-06-5.51767E-06 0.00000E+00 9.75969E-06-1.06701E-23-3.86040E-24
 -1       713-6.16653E-06-5.49625E-06 0.00000E+00 7.85341E-06-7.95542E-24-1.76094E-23
 -1       714-8.01636E-06-3.60752E-06 0.00000E+00 9.17992E-06 2.52540E-23 6.22569E-27
 -1       715-9.84334E-06-1.05595E-06 0.00000E+00 9.91918E-06-1.13656E-23-7.66088E-24
 -1       716-7.06789E-06-3.67523E-06 0.00000E+00 1.02434E-05 4.73302E-24-6.70393E-24
 -1       717-5.87534E-06-3.95008E-06 0.00000E+00 1.11507E-05-8.84287E-24 1.99318E-24
 -1       718-1.27612E-05-2.93287E-06 0.00000E+00 6.80540E-06-2.66486E-23 3.71477E-23
 -1       719-1.32102E-05-3.27896E-06 0.00000E+00 7.14406E-06-4.61406E-23-9.33195E-24
 -1       720-1.16575E-05-4.91808E-06 0.00000E+00 7.54846E-06 4.31047E-23-6.18413E-24
 -1       721-1.45083E-05-2.47249E-06 0.00000E+00 6.98641E-06 7.38940E-24-6.49835E-23
 -1       722-1.46625E-05-2.98030E-06 0.00000E+00 7.34360E-06 1.25280E-23-2.38516E-23
 -1       723-1.35442E-05-3.94141E-06 0.00000E+00 7.47085E-06-7.80266E-23 2.56509E-23
 -1       724-1.33219E-05-4.73735E-06 0.00000E+00 8.07705E-06-3.10105E-23 6.78023E-23
 -1       725-1.16554E-05-5.89843E-06 0.00000E+00 8.17189E-06 7.33793E-23 7.76890E-23
 -1       726-7.93043E-06-6.68181E-06 0.00000E+00 3.47570E-06 8.43873E-23-5.34425E-23
 -1       727-8.45469E-06-6.48417E-06 0.00000E+00 4.27281E-06-4.27981E-23 8.94544E-24
 -1       728-7.89736E-06-6.75442E-06 0.00000E+00 3.86989E-06-4.77930E-23-2.24766E-22
 -1       729-8.97010E-06-6.24156E-06 0.00000E+00 4.67384E-06-2.09554E-22 1.07646E-22
 -1       730-9.61212E-06-5.96002E-06 0.00000E+00 5.30186E-06-1.14788E-22-5.71568E-23
 -1       731-9.09686E-06-6.08066E-06 0.00000E+00 4.98811E-06-3.01734E-22 1.64868E-23
 -1       732-1.02560E-05-5.28757E-06 0.00000E+00 5.75867E-06 2.49926E-23-6.44959E-23
 -1       733-8.64374E-06-6.21115E-06 0.00000E+00 4.80763E-06-5.49158E-23 1.34311E-22
 -1       734-8.54668E-06-1.86136E-06 0.00000E+00 4.35736E-06-1.00323E-23-1.85872E-23
 -1       735-8.69287E-06-9.80882E-07 0.00000E+00 3.99082E-06 5.19868E-26-6.75204E-25
 -1       736-6.72957E-06-2.69298E-06 0.00000E+00 3.52330E-06-7.19657E-24 4.58903E-24
 -1       737-5.66975E-06-2.34424E-06 0.00000E+00 2.36663E-06 6.74085E-24 1.36074E-23
 -1       738-7.08908E-06-1.76555E-06 0.00000E+00 3.24769E-06-2.84842E-24 7.74359E-24
 -1       739-7.43784E-06-8.78069E-07 0.00000E+00 2.88927E-06-3.10930E-24 1.02032E-24
 -1       740-3.45403E-06-1.79709E-06 0.00000E+00 8.77446E-09 1.93508E-25 8.16574E-25
 -1       741-3.31240E-06-2.00202E-06 0.00000E+00 1.27209E-07 2.15598E-24-5.54039E-24
 -1       742-2.99632E-06-2.17111E-06 0.00000E+00 7.84783E-08-1.89557E-24 3.33204E-25
 -1       743-3.64829E-06-1.83010E-06 0.00000E+00 1.87284E-07-2.68136E-25 1.56117E-24
 -1       744-3.47876E-06-2.04978E-06 0.00000E+00 2.85331E-07 1.42424E-27 1.22434E-23
 -1       745-3.16436E-06-2.21851E-06 0.00000E+00 2.39800E-07 5.63028E-25-7.22536E-24
 -1       746-2.95170E-06-2.45755E-06 0.00000E+00 3.50912E-07-2.28712E-24-6.28641E-24
 -1       747-2.84024E-06-2.38954E-06 0.00000E+00 2.13183E-07-1.37887E-24 2.35872E-24
 -1       748-2.69588E-06-2.33259E-06 0.00000E+00 5.39673E-08-1.68360E-24 1.72521E-24
 -1       749-3.57562E-06-2.14751E-06 0.00000E+00 4.25270E-07 1.52402E-25-7.42165E-24
 -1       750-3.28215E-06-2.29336E-06 0.00000E+00 3.78239E-07-7.43979E-25-4.54913E-24
 -1       751-3.59767E-06-2.27825E-06 0.00000E+00 5.28694E-07-6.86588E-26-5.38997E-24
 -1       752-3.34872E-06-2.39306E-06 0.00000E+00 4.89014E-07 3.28202E-25 2.64502E-24
 -1       753-3.09406E-06-2.63376E-06 0.00000E+00 5.89219E-07 3.41381E-25 1.70441E-24
 -1       754-3.04593E-06-2.54814E-06 0.00000E+00 4.91839E-07-6.33102E-25 2.20286E-25
 -1       755-1.58820E-05-1.49050E-06 0.00000E+00 6.91002E-06 4.98078E-23 2.66497E-23
 -1       756-1.74997E-05-6.35336E-07 0.00000E+00 6.80977E-06 3.47818E-23-5.69141E-23
 -1       757-1.74286E-05-1.01318E-06 0.00000E+00 7.05391E-06-3.30290E-23 1.56004E-24
 -1       758-1.61184E-05-2.01636E-06 0.00000E+00 7.15085E-06 1.75384E-24 1.71517E-23
 -1       759-1.67215E-05-2.54184E-07 0.00000E+00 6.86923E-06-1.29355E-23-2.85147E-23
 -1       760-1.87473E-05-8.84828E-08 0.00000E+00 6.99009E-06 5.45414E-24 1.19014E-23
 -1       761-1.86785E-05-3.65486E-07 0.00000E+00 6.84106E-06 1.71427E-23 3.09449E-23
 -1       762-1.70040E-05-1.64686E-06 0.00000E+00 7.25586E-06 1.87514E-23 2.02464E-23
 -1       763-3.08771E-06-1.43352E-06 0.00000E+00-8.57175E-07-9.51257E-25-4.47792E-25
 -1       764-3.55660E-06-9.92068E-07 0.00000E+00-8.70440E-07-7.34217E-25-2.50292E-25
 -1       765-3.65006E-06-1.06868E-06 0.00000E+00-6.74120E-07-8.93196E-25-5.26773E-25
 -1       766-3.24237E-06-1.44280E-06 0.00000E+00-6.49729E-07-1.56658E-25-1.26036E-25
 -1       767-3.35348E-06-9.08316E-07 0.00000E+00-1.13245E-06 8.90783E-25 2.40311E-25
 -1       768-3.79642E-06-5.13947E-07 0.00000E+00-1.04459E-06-4.94719E-25-4.80329E-26
 -1       769-3.94122E-06-6.09347E-07 0.00000E+00-8.24688E-07-3.84773E-26-3.33692E-25
 -1       770-4.41401E-06-1.56130E-07 0.00000E+00-7.30713E-07-1.42798E-25-3.85573E-25
 -1       771-4.49335E-06-3.33556E-07 0.00000E+00-5.28333E-07 1.26466E-25 6.54152E-25
 -1       772-4.04068E-06-7.47488E-07 0.00000E+00-6.08172E-07 7.50300E-25 9.12173E-25
 -1       773-4.02499E-06-9.63248E-07 0.00000E+00-3.97903E-07 1.70038E-25-2.63582E-24
 -1       774-3.66152E-06-1.26264E-06 0.00000E+00-4.40176E-07-2.67072E-25-2.21369E-25
 -1       775-5.23778E-06-2.71083E-07 0.00000E+00 8.74572E-08-9.11237E-26 5.14662E-25
 -1       776-4.84868E-06-5.55380E-07 0.00000E+00-2.84366E-08-1.35784E-26-9.44214E-25
 -1       777-4.90453E-06-2.87699E-07 0.00000E+00-1.93194E-07 1.03268E-25 3.68443E-25
 -1       778-4.77841E-06-7.95626E-07 0.00000E+00 1.33906E-07-7.58261E-26 7.88793E-26
 -1       779-4.41657E-06-1.05438E-06 0.00000E+00 5.15771E-08-6.84800E-26-1.59365E-24
 -1       780-4.46422E-06-8.24949E-07 0.00000E+00-1.21220E-07 3.85340E-27 5.08566E-25
 -1       781-4.04261E-06-1.14856E-06 0.00000E+00-1.87797E-07 4.68904E-25-2.47968E-24
 -1       782-4.47995E-06-6.13032E-07 0.00000E+00-3.14690E-07 3.06642E-25-2.29705E-24
 -1       783-2.43178E-06-2.17237E-06 0.00000E+00-3.96128E-07-1.02544E-24-2.15293E-25
 -1       784-2.51249E-06-2.13843E-06 0.00000E+00-6.37385E-07 8.15673E-25 1.74193E-24
 -1       785-2.40170E-06-2.39112E-06 0.00000E+00-1.39646E-07-1.23237E-24 7.16002E-25
 -1       786-1.61167E-06-7.67264E-07 0.00000E+00-2.28185E-06-3.99105E-25-3.65643E-27
 -1       787-2.47189E-06-1.66537E-06 0.00000E+00-1.21156E-06 5.49557E-26-1.88801E-25
 -1       788-3.25603E-06-8.41861E-07 0.00000E+00-1.37573E-06-3.75309E-25-3.49165E-26
 -1       789-2.64586E-06-1.61568E-06 0.00000E+00-1.02520E-06 6.34327E-25-1.34402E-25
 -1       790-2.71290E-06-1.91414E-06 0.00000E+00-5.89429E-07 2.38857E-26-1.23349E-24
 -1       791-6.46715E-06-4.99343E-07 0.00000E+00 1.53621E-06 2.51725E-25 3.46323E-24
 -1       792-5.88316E-06-8.66490E-07 0.00000E+00 1.28531E-06 2.08565E-24-2.66787E-24
 -1       793-6.18208E-06-3.78132E-07 0.00000E+00 1.09763E-06-5.13510E-25-1.68703E-24
 -1       794-5.50263E-06-1.39833E-06 0.00000E+00 1.39759E-06 2.10940E-24 7.47840E-24
 -1       795-5.39893E-06-1.11234E-06 0.00000E+00 1.01349E-06 1.09709E-24 2.91237E-25
 -1       796-5.24819E-06-9.24726E-07 0.00000E+00 6.82763E-07-7.63467E-26 5.63151E-25
 -1       797-5.67835E-06-6.93166E-07 0.00000E+00 8.85496E-07 3.02803E-25-1.85875E-24
 -1       798-5.87068E-06-3.12340E-07 0.00000E+00 7.04975E-07-3.78790E-25-1.28918E-26
 -1       799-5.44518E-06-5.93852E-07 0.00000E+00 5.52651E-07 1.37643E-25-4.37493E-24
 -1       800-5.58537E-06-2.76737E-07 0.00000E+00 4.02411E-07 2.30223E-25 6.72489E-25
 -1       801-5.04849E-06-8.25852E-07 0.00000E+00 4.04283E-07-1.61782E-25 3.55281E-24
 -1       802-5.16980E-06-5.49782E-07 0.00000E+00 2.55805E-07 3.69586E-27-1.51329E-24
 -1       803-6.38974E-06-1.46915E-06 0.00000E+00 2.39032E-06-3.31378E-24-1.84130E-24
 -1       804-6.87517E-06-6.68654E-07 0.00000E+00 2.15747E-06-6.83712E-25-5.25914E-24
 -1       805-4.87158E-06-2.59516E-06 0.00000E+00 1.84449E-06-1.66062E-24-3.75904E-24
 -1       806-5.61628E-06-1.79532E-06 0.00000E+00 1.87139E-06 3.24906E-24-4.59193E-24
 -1       807-5.04663E-06-1.99533E-06 0.00000E+00 1.48641E-06 2.69429E-24 2.34637E-24
 -1       808-6.07176E-06-1.14298E-06 0.00000E+00 1.77121E-06 2.49124E-25-5.00677E-24
 -1       809-3.59066E-06-2.22217E-06 0.00000E+00 1.50084E-07 1.35247E-22 3.39447E-22
 -1       810-3.40716E-06-2.28862E-06 0.00000E+00 3.89454E-08 5.42872E-22-8.54730E-23
 -1       811-2.74311E-06-2.41047E-06 0.00000E+00 3.23710E-08 1.24114E-21-3.74009E-22
 -1       812-4.44915E-06-2.10751E-06 0.00000E+00 3.58137E-07 2.83003E-22 2.66476E-22
 -1       813-4.24825E-06-2.20074E-06 0.00000E+00 1.56429E-07-2.15685E-23-1.48609E-23
 -1       814-4.63702E-06-2.23424E-06 0.00000E+00 1.25847E-07 5.39854E-23 5.44087E-23
 -1       815-4.18812E-06-2.23834E-06 0.00000E+00-2.13813E-08-5.35117E-22 2.86070E-22
 -1       816-3.79685E-06-2.24614E-06 0.00000E+00 8.30428E-09 1.51757E-22-1.35128E-22
 -1       817-3.57376E-06-2.27595E-06 0.00000E+00-4.70141E-08 4.88385E-23-1.01130E-22
 -1       818-3.17959E-06-2.33004E-06 0.00000E+00-2.16044E-08 6.36063E-23-1.98126E-22
 -1       819-3.07288E-06-2.72924E-06 0.00000E+00 6.36663E-07-3.50614E-25-2.19511E-24
 -1       820-3.22521E-06-2.68261E-06 0.00000E+00 5.65978E-07 2.42978E-25 1.60395E-23
 -1       821-2.96676E-06-2.79782E-06 0.00000E+00 5.91053E-07-4.15754E-25 1.36703E-23
 -1       822-3.33926E-06-2.52362E-06 0.00000E+00 5.59739E-07 5.77870E-25-1.01096E-23
 -1       823-3.49291E-06-2.50345E-06 0.00000E+00 6.02258E-07 1.35506E-25-1.24215E-24
 -1       824-3.29051E-06-2.74890E-06 0.00000E+00 6.13991E-07 4.08260E-24 1.60882E-23
 -1       825-4.03755E-06-1.46269E-06 0.00000E+00 1.29243E-07-8.57505E-25 6.03684E-25
 -1       826-4.08729E-06-1.26628E-06 0.00000E+00-1.89520E-08-2.48231E-25 5.31691E-25
 -1       827-3.72710E-06-1.63606E-06 0.00000E+00 6.04040E-08 7.67625E-25-1.45659E-24
 -1       828-3.77953E-06-1.50093E-06 0.00000E+00-4.51450E-08 6.81129E-25 3.50743E-25
 -1       829-1.11710E-05-4.75107E-06 0.00000E+00 6.19727E-06-1.94542E-22 9.48148E-23
 -1       830-1.23780E-05-4.19539E-06 0.00000E+00 6.64342E-06 3.97308E-24 1.43677E-22
 -1       831-1.33480E-05-3.35039E-06 0.00000E+00 6.76779E-06 1.93467E-22 1.31127E-22
 -1       832-1.21190E-05-3.87313E-06 0.00000E+00 6.40871E-06 1.62136E-22-9.45103E-23
 -1       833-1.16790E-05-4.85934E-06 0.00000E+00 6.55257E-06 2.27716E-22-1.40632E-22
 -1       834-1.32984E-05-3.85780E-06 0.00000E+00 7.01971E-06-6.35526E-23 2.38435E-23
 -1       835-1.48845E-05-2.87801E-06 0.00000E+00 7.25305E-06-1.10341E-22 5.83488E-23
 -1       836-1.41679E-05-3.08502E-06 0.00000E+00 6.98736E-06 1.55138E-23 1.74837E-23
 -1       837-1.53351E-05-2.15602E-06 0.00000E+00 6.99212E-06-9.34503E-23 1.14631E-22
 -1       838-1.45338E-05-2.40702E-06 0.00000E+00 6.81941E-06-1.51012E-23 9.88441E-23
 -1       839-1.57565E-05-2.93782E-06 0.00000E+00 7.95433E-06-1.03714E-22 3.10157E-23
 -1       840-1.60203E-05-2.42490E-06 0.00000E+00 7.57888E-06-5.41197E-23-5.46838E-23
 -1       841-1.45614E-05-4.37925E-06 0.00000E+00 9.06623E-06 5.30998E-23-7.10256E-23
 -1       842-1.47250E-05-3.89491E-06 0.00000E+00 8.47183E-06-2.46200E-23 3.39043E-23
 -1       843-1.33578E-05-5.14926E-06 0.00000E+00 8.87538E-06 6.91881E-23 5.30412E-24
 -1       844-1.47491E-05-3.51880E-06 0.00000E+00 7.83050E-06 2.11249E-23 6.76693E-23
 -1       845-5.10185E-06-2.25219E-06 0.00000E+00 3.14024E-07-3.66813E-22-2.25477E-24
 -1       846-4.97669E-06-2.32524E-06 0.00000E+00 2.97781E-08-1.17717E-21 5.44926E-22
 -1       847-8.03937E-06-4.68325E-06 0.00000E+00 2.96615E-06-4.61264E-22-5.86555E-23
 -1       848-8.44333E-06-4.69962E-06 0.00000E+00 3.67955E-06 9.55168E-22 8.89405E-23
 -1       849-8.26621E-06-5.17512E-06 0.00000E+00 3.43301E-06 4.10458E-22-1.64095E-22
 -1       850-8.52852E-06-4.17917E-06 0.00000E+00 3.71586E-06-2.78989E-22-5.42291E-22
 -1       851-8.98749E-06-4.61813E-06 0.00000E+00 4.39003E-06 5.38768E-24 3.03946E-22
 -1       852-8.80313E-06-5.17537E-06 0.00000E+00 4.27692E-06 4.91333E-22-2.34370E-23
 -1       853-3.41372E-06-2.28757E-06 0.00000E+00-6.31541E-08 8.25192E-22 1.20995E-22
 -1       854-3.32763E-06-2.29084E-06 0.00000E+00-6.36037E-08 8.47069E-22-5.21802E-22
 -1       855-3.01284E-06-2.34842E-06 0.00000E+00-4.71140E-08 4.66769E-22 7.58308E-23
 -1       856-3.10477E-06-2.34135E-06 0.00000E+00-4.61977E-08-9.22030E-22-1.12485E-22
 -1       857-3.60905E-06-2.24947E-06 0.00000E+00-7.84023E-08 6.49824E-22-3.96274E-22
 -1       858-3.25855E-06-2.29262E-06 0.00000E+00-6.04418E-08-6.29664E-22-3.37966E-22
 -1       859-2.92886E-06-2.34565E-06 0.00000E+00-3.45892E-08-4.37550E-22 3.42468E-22
 -1       860-2.95682E-06-2.35161E-06 0.00000E+00-4.14895E-08 9.25103E-22-1.16983E-22
 -1       861-2.59335E-06-2.43116E-06 0.00000E+00-1.85326E-08-1.08955E-21-8.75720E-23
 -1       862-2.65370E-06-2.43223E-06 0.00000E+00-2.38804E-08-6.75182E-22 1.40294E-22
 -1       863-4.20531E-06-6.63156E-06 0.00000E+00 6.36003E-06 4.62498E-23 1.89838E-23
 -1       864-4.00494E-06-7.38716E-06 0.00000E+00 6.36469E-06-1.46749E-22 5.08456E-24
 -1       865-4.21600E-06-7.88114E-06 0.00000E+00 5.44348E-06 9.83940E-23 8.73690E-24
 -1       866-4.11148E-06-6.84845E-06 0.00000E+00 6.68271E-06 1.18869E-22 3.05596E-23
 -1       867-4.24318E-06-7.00511E-06 0.00000E+00 7.07166E-06 2.94994E-23-2.43836E-23
 -1       868-3.89477E-06-7.67882E-06 0.00000E+00 6.77375E-06-6.45483E-25-4.15586E-24
 -1       869-4.14595E-06-7.46571E-06 0.00000E+00 7.80352E-06 8.66398E-23 3.81597E-24
 -1       870-3.82674E-06-9.01931E-06 0.00000E+00 6.35459E-06 2.75600E-23-1.19252E-23
 -1       871-5.99193E-06-2.20455E-06 0.00000E+00 1.11719E-06-6.04797E-22 8.07202E-24
 -1       872-5.27426E-06-2.05133E-06 0.00000E+00 8.20222E-07-1.37451E-22-1.74670E-22
 -1       873-5.94729E-06-2.36575E-06 0.00000E+00 8.86127E-07 4.58175E-22 3.57761E-23
 -1       874-5.18415E-06-2.16648E-06 0.00000E+00 5.34699E-07-4.11091E-22-6.79801E-23
 -1       875-2.59999E-06-2.39224E-06 0.00000E+00-3.86629E-09-1.06491E-21 3.07928E-22
 -1       876-2.76005E-06-2.35412E-06 0.00000E+00-1.48219E-09-2.84469E-22-1.80183E-22
 -1       877-2.77173E-06-2.37113E-06 0.00000E+00-1.92400E-08-4.00072E-22 2.24768E-22
 -1       878-2.93238E-06-2.31971E-06 0.00000E+00-1.33411E-08-6.90439E-22-1.49913E-22
 -1       879-4.83232E-06-2.24915E-06 0.00000E+00-1.12626E-07-1.91522E-22-4.66762E-24
 -1       880-5.04063E-06-2.34349E-06 0.00000E+00-4.64650E-08-4.04976E-22 1.48673E-22
 -1       881-4.21662E-06-2.20991E-06 0.00000E+00-9.98217E-08-1.16068E-22 3.26435E-23
 -1       882-3.91053E-06-2.23009E-06 0.00000E+00-8.67260E-08-2.10022E-22-1.73977E-22
 -1       883-4.38285E-06-2.21614E-06 0.00000E+00-1.04216E-07-9.72412E-22 8.37111E-23
 -1       884-4.34483E-06-2.25157E-06 0.00000E+00-5.69061E-08 6.89623E-22 2.95275E-25
 -1       885-2.75410E-06-2.13223E-06 0.00000E+00-1.73669E-07 1.55277E-24-2.08725E-24
 -1       886-2.57935E-06-2.26282E-06 0.00000E+00-1.70207E-07 1.27615E-24-2.64839E-24
 -1       887-2.70520E-06-2.07621E-06 0.00000E+00-3.31908E-07-1.01383E-24 8.18997E-25
 -1       888-2.92971E-06-1.93690E-06 0.00000E+00-3.10000E-07 1.30085E-24-8.53508E-25
 -1       889-2.50361E-06-2.35986E-06 0.00000E+00-5.47296E-08 2.57599E-24-6.96026E-26
 -1       890-2.48802E-06-2.36168E-06 0.00000E+00-8.43174E-08-1.70393E-24-3.13490E-24
 -1       891-2.47263E-06-2.25411E-06 0.00000E+00-3.15058E-07 7.55262E-25-2.70271E-24
 -1       892-2.94349E-06-1.77242E-06 0.00000E+00-5.56238E-07 2.66146E-25-5.88153E-25
 -1       893-7.68338E-06-4.04252E-06 0.00000E+00 2.11630E-06 1.55932E-23-5.06547E-23
 -1       894-7.84009E-06-4.00015E-06 0.00000E+00 2.58508E-06 3.90013E-22-4.03134E-22
 -1       895-7.79634E-06-4.28113E-06 0.00000E+00 2.45632E-06-5.06365E-22-8.70524E-23
 -1       896-7.70665E-06-3.70356E-06 0.00000E+00 2.43234E-06-2.18244E-22-1.39248E-22
 -1       897-8.06761E-06-3.84481E-06 0.00000E+00 3.02649E-06-6.00902E-22-7.08121E-23
 -1       898-8.09733E-06-4.27500E-06 0.00000E+00 3.08657E-06 2.37278E-22-1.36039E-23
 -1       899-1.55199E-05-1.27398E-06 0.00000E+00 6.83956E-06-7.11220E-23 8.72296E-23
 -1       900-1.37477E-05-2.49873E-06 0.00000E+00 6.70249E-06 3.68803E-23 1.20965E-23
 -1       901-1.41907E-05-1.66060E-06 0.00000E+00 6.82253E-06-1.48792E-23 9.42439E-23
 -1       902-1.27157E-05-2.75123E-06 0.00000E+00 6.52608E-06-1.09289E-22 2.20396E-23
 -1       903-7.26667E-06-3.16063E-06 0.00000E+00 1.12876E-05 3.36705E-23-7.43810E-24
 -1       904-2.31256E-06-5.12785E-06 0.00000E+00 1.28375E-05-2.58898E-24-4.27840E-24
 -1       905-4.98782E-06-9.68785E-07 0.00000E+00 1.30792E-05 5.53857E-24 3.75804E-24
 -1       906 3.37046E-08-7.42089E-06 0.00000E+00 1.09723E-05 9.26092E-24 4.01594E-24
 -1       907-1.19874E-05-6.72773E-06 0.00000E+00 1.09092E-05 4.31993E-23 2.19029E-22
 -1       908-1.34474E-05-5.77606E-06 0.00000E+00 1.04593E-05-2.24969E-24 1.90277E-23
 -1       909-1.16821E-05-7.78568E-06 0.00000E+00 1.12427E-05-1.41972E-22-6.41763E-23
 -1       910-1.22638E-05-6.50076E-06 0.00000E+00 1.03298E-05-7.27818E-23-3.96367E-23
 -1       911-1.20524E-05-6.49248E-06 0.00000E+00 9.21480E-06-4.16662E-24 1.24120E-22
 -1       912-1.35311E-05-5.34265E-06 0.00000E+00 9.76850E-06-5.95743E-23-6.97291E-23
 -1       913-4.69773E-06-2.36921E-06 0.00000E+00 1.46331E-06 6.08449E-24 1.33039E-23
 -1       914-4.29026E-06-2.43039E-06 0.00000E+00 1.14855E-06-2.14637E-24 1.24548E-23
 -1       915-4.11370E-06-2.74244E-06 0.00000E+00 1.22654E-06 6.29870E-24 8.02809E-24
 -1       916-2.52001E-06-2.39349E-06 0.00000E+00 7.75881E-09 2.54192E-24-2.12802E-24
 -1       917-2.74283E-06-2.23905E-06 0.00000E+00-2.38061E-08-8.74580E-25-1.20567E-24
 -1       918-2.59796E-06-2.29698E-06 0.00000E+00-7.71716E-08-2.06227E-24-2.86539E-24
 -1       919-7.52955E-06-4.64347E-06 0.00000E+00 5.98640E-06-1.21249E-22 1.00089E-22
 -1       920-9.03730E-06-3.86735E-06 0.00000E+00 6.42781E-06 3.79618E-24 5.74939E-24
 -1       921-8.81628E-06-4.00074E-06 0.00000E+00 5.99543E-06-7.97993E-23 6.94280E-23
 -1       922-2.90242E-06-2.38727E-06 0.00000E+00-4.82796E-09 9.49610E-22 1.14972E-22
 -1       923-2.59048E-06-2.47651E-06 0.00000E+00-5.97622E-09-4.28695E-22 2.08332E-22
 -1       924-2.82915E-06-2.40138E-06 0.00000E+00-2.74324E-08-6.58456E-23 2.23574E-22
 -1       925-1.64416E-05-1.65526E-06 0.00000E+00 7.09220E-06 1.40919E-22-8.61916E-23
 -1       926-1.59205E-05-2.24809E-06 0.00000E+00 7.31017E-06 6.70373E-23-6.73777E-24
 -1       927-1.55124E-05-2.31348E-06 0.00000E+00 7.13404E-06 6.25014E-23 2.24434E-24
 -1       928-3.08201E-06-1.73024E-06 0.00000E+00-4.42595E-07 7.55722E-25 1.44591E-24
 -1       929-3.30020E-06-1.61900E-06 0.00000E+00-3.66959E-07-3.77199E-25-2.67405E-25
 -1       930-3.37350E-06-1.43862E-06 0.00000E+00-5.23217E-07 6.64592E-25-3.76748E-24
 -1       931-1.56784E-05-1.12052E-06 0.00000E+00 6.70427E-06 2.70559E-23 1.40236E-23
 -1       932-1.44922E-05-1.35633E-06 0.00000E+00 6.59588E-06 1.58788E-23-2.28708E-23
 -1       933-1.41828E-05-2.01657E-06 0.00000E+00 6.80455E-06-4.53487E-25-4.48563E-23
 -1       934-2.74747E-06-2.79987E-06 0.00000E+00 4.40413E-07 9.18791E-25-2.27504E-24
 -1       935-2.80592E-06-2.90275E-06 0.00000E+00 4.13445E-07-7.34374E-25-6.34343E-24
 -1       936-2.97785E-06-2.82935E-06 0.00000E+00 4.91015E-07 4.07144E-24-1.31773E-23
 -1       937-1.01745E-05-5.57292E-06 0.00000E+00 5.70107E-06 6.97433E-23-1.47123E-22
 -1       938-1.10285E-05-5.10791E-06 0.00000E+00 6.16605E-06 6.01310E-23 1.56793E-23
 -1       939-1.06720E-05-5.46499E-06 0.00000E+00 6.08346E-06 1.00684E-22 4.85579E-23
 -1       940-8.49870E-06-6.25898E-06 0.00000E+00 4.08566E-06 3.26696E-22 4.23792E-23
 -1       941-7.97395E-06-6.46127E-06 0.00000E+00 3.30264E-06 4.56142E-23-7.95971E-24
 -1       942-8.33176E-06-6.46914E-06 0.00000E+00 3.90691E-06-3.75142E-22-7.00254E-23
 -1       943-3.85519E-06-6.31542E-06 0.00000E+00 6.30801E-06-9.75097E-23-5.17180E-23
 -1       944-3.61275E-06-6.30844E-06 0.00000E+00 6.59652E-06-1.62779E-22-4.44607E-23
 -1       945-4.00180E-06-6.61947E-06 0.00000E+00 6.57659E-06 1.28330E-22 3.47598E-23
 -1       946-4.54396E-06-6.89951E-06 0.00000E+00 7.47373E-06-1.25560E-23-6.39113E-24
 -1       947-5.20344E-06-6.29813E-06 0.00000E+00 7.98677E-06-9.16693E-24 4.22739E-24
 -1       948-5.11728E-06-6.32343E-06 0.00000E+00 7.38490E-06 3.16090E-23 4.59705E-23
 -1       949-8.92136E-06-9.69297E-06 0.00000E+00 1.03500E-05-4.61060E-24 2.00343E-23
 -1       950-1.11028E-05-7.93607E-06 0.00000E+00 9.76790E-06 9.71562E-24 2.01797E-23
 -1       951-1.01335E-05-6.99181E-06 0.00000E+00 8.72183E-06-4.62216E-23-4.11887E-23
 -1       952-3.96465E-06-2.23553E-06 0.00000E+00-8.43210E-08 3.90322E-22 2.62199E-22
 -1       953-3.82063E-06-2.24911E-06 0.00000E+00-5.87928E-08-9.92864E-22-1.53215E-22
 -1       954-3.66147E-06-2.25725E-06 0.00000E+00-7.80782E-08 5.33028E-22 2.03968E-23
 -1       955-4.21645E-06-1.08477E-07 0.00000E+00-9.42759E-07-6.23808E-26 1.58471E-26
 -1       956-3.92300E-06-2.40771E-07 0.00000E+00-1.14288E-06 1.58341E-25-2.05660E-26
 -1       957-3.76059E-06-1.36976E-07 0.00000E+00-1.31651E-06 3.74249E-26 6.13453E-26
 -1       958-4.09345E-06-2.92027E-07 0.00000E+00-9.39433E-07-1.38337E-25 1.02350E-25
 -1       959-3.63200E-06-4.75223E-07 0.00000E+00-1.26269E-06 1.48950E-25-3.07413E-25
 -1       960-2.92783E-06-6.29938E-07 0.00000E+00-1.70257E-06 1.34270E-25-8.09933E-26
 -1       961-3.52667E-06-3.07805E-07 0.00000E+00-1.44183E-06-3.34366E-26-4.57867E-25
 -1       962-3.02890E-06-1.82295E-07 0.00000E+00-1.68553E-06 1.14961E-25-9.61076E-26
 -3
    1PSTEP                         4           1           1          
  100CL  101 1.000000000         960                     0    1           1
 -4  FORCR       4    1
 -5  F1          1    2    1    0
 -5  F2          1    2    2    0
 -5  F3          1    2    3    0
 -5  ALL         1    2    0    0    1ALL
 -1         1-3.72529E-09 0.00000E+00 0.00000E+00
 -1         2 0.00000E+00 0.00000E+00 0.00000E+00
 -1         3 0.00000E+00 0.00000E+00 0.00000E+00
 -1         4 0.00000E+00 0.00000E+00 0.00000E+00
 -1         5 0.00000E+00 0.00000E+00 0.00000E+00
 -1         6 0.00000E+00 0.00000E+00 0.00000E+00
 -1         8 0.00000E+00 0.00000E+00 0.00000E+00
 -1        10 0.00000E+00 0.00000E+00 0.00000E+00
 -1        11 0.00000E+00 0.00000E+00 0.00000E+00
 -1        12-2.91038E-11 0.00000E+00 0.00000E+00
 -1        13 0.00000E+00 0.00000E+00 0.00000E+00
 -1        14 0.00000E+00 0.00000E+00 0.00000E+00
 -1        15 0.00000E+00 0.00000E+00 0.00000E+00
 -1        16 0.00000E+00 0.00000E+00 0.00000E+00
 -1        17 0.00000E+00 0.00000E+00 0.00000E+00
 -1        18 0.00000E+00 0.00000E+00 0.00000E+00
 -1        19 0.00000E+00 0.00000E+00 0.00000E+00
 -1        20 0.00000E+00 0.00000E+00 0.00000E+00
 -1        21 0.00000E+00 0.00000E+00 0.00000E+00
 -1        22 0.00000E+00 0.00000E+00 0.00000E+00
 -1        23 0.00000E+00 0.00000E+00 0.00000E+00
 -1        24 0.00000E+00 0.00000E+00 0.00000E+00
 -1        25 0.00000E+00 0.00000E+00 0.00000E+00
 -1        26 0.00000E+00 0.00000E+00 0.00000E+00
 -1        27 0.00000E+00 0.00000E+00 0.00000E+00
 -1        28 0.00000E+00 0.00000E+00 0.00000E+00
 -1        29 0.00000E+00 0.00000E+00 0.00000E+00
 -1        30 0.00000E+00 0.00000E+00 0.00000E+00
 -1        31 0.00000E+00 0.00000E+00 0.00000E+00
 -1        32 0.00000E+00 0.00000E+00 0.00000E+00
 -1        33 0.00000E+00 0.00000E+00 0.00000E+00
 -1        34 0.00000E+00 0.00000E+00 0.00000E+00
 -1        35 0.00000E+00 0.00000E+00 0.00000E+00
 -1        36 0.00000E+00 0.00000E+00 0.00000E+00
 -1        37 0.00000E+00 0.00000E+00 0.00000E+00
 -1        38 0.00000E+00 0.00000E+00 0.00000E+00
 -1        39 0.00000E+00 0.00000E+00 0.00000E+00
 -1        40 0.00000E+00 0.00000E+00 0.00000E+00
 -1        41 0.00000E+00 0.00000E+00 0.00000E+00
 -1        42 0.00000E+00 0.00000E+00 0.00000E+00
 -1        43 0.00000E+00 0.00000E+00 0.00000E+00
 -1        44 0.00000E+00 0.00000E+00 0.00000E+00
 -1        45 0.00000E+00 0.00000E+00 0.00000E+00
 -1        46 0.00000E+00 0.00000E+00 0.00000E+00
 -1        47 0.00000E+00 0.00000E+00 0.00000E+00
 -1        48 0.00000E+00 0.00000E+00 0.00000E+00
 -1        49 0.00000E+00 0.00000E+00 0.00000E+00
 -1        50 0.00000E+00 0.00000E+00 0.00000E+00
 -1        51 0.00000E+00 0.00000E+00 0.00000E+00
 -1        52 0.00000E+00 0.00000E+00 0.00000E+00
 -1        53 0.00000E+00 0.00000E+00 0.00000E+00
 -1        54 0.00000E+00 0.00000E+00 0.00000E+00
 -1        55 0.00000E+00 0.00000E+00 0.00000E+00
 -1        56 0.00000E+00 0.00000E+00 0.00000E+00
 -1        57 0.00000E+00 0.00000E+00 0.00000E+00
 -1        58 0.00000E+00 0.00000E+00 0.00000E+00
 -1        59 0.00000E+00 0.00000E+00 0.00000E+00
 -1        60 0.00000E+00 0.00000E+00 0.00000E+00
 -1        61 0.00000E+00 0.00000E+00 0.00000E+00
 -1        62 0.00000E+00 0.00000E+00 0.00000E+00
 -1        63 0.00000E+00 0.00000E+00 0.00000E+00
 -1        64 0.00000E+00 0.00000E+00 0.00000E+00
 -1        65 0.00000E+00 0.00000E+00 0.00000E+00
 -1        66 0.00000E+00 0.00000E+00 0.00000E+00
 -1        67 0.00000E+00 0.00000E+00 0.00000E+00
 -1        68 0.00000E+00 0.00000E+00 0.00000E+00
 -1        69 0.00000E+00 0.00000E+00 0.00000E+00
 -1        70 0.00000E+00 0.00000E+00 0.00000E+00
 -1        71 0.00000E+00 0.00000E+00 0.00000E+00
 -1        72 0.00000E+00 0.00000E+00 0.00000E+00
 -1        73 0.00000E+00 0.00000E+00 0.00000E+00
 -1        74 0.00000E+00 0.00000E+00 0.00000E+00
 -1        75 0.00000E+00 0.00000E+00 0.00000E+00
 -1        76 0.00000E+00 0.00000E+00 0.00000E+00
 -1        77 0.00000E+00 0.00000E+00 0.00000E+00
 -1        78 0.00000E+00 0.00000E+00 0.00000E+00
 -1        79 0.00000E+00 0.00000E+00 0.00000E+00
 -1        80 0.00000E+00 0.00000E+00 0.00000E+00
 -1        81 0.00000E+00 0.00000E+00 0.00000E+00
 -1        82 0.00000E+00 0.00000E+00 0.00000E+00
 -1        83 0.00000E+00 0.00000E+00 0.00000E+00
 -1        84 0.00000E+00 0.00000E+00 0.00000E+00
 -1        85 0.00000E+00 0.00000E+00 0.00000E+00
 -1        86 0.00000E+00 0.00000E+00 0.00000E+00
 -1        87 0.00000E+00 0.00000E+00 0.00000E+00
 -1        88 0.00000E+00 0.00000E+00 0.00000E+00
 -1        89 0.00000E+00 0.00000E+00 0.00000E+00
 -1        90 0.00000E+00 0.00000E+00 0.00000E+00
 -1        91 0.00000E+00 0.00000E+00 0.00000E+00
 -1        92 0.00000E+00 0.00000E+00 0.00000E+00
 -1        93 0.00000E+00 0.00000E+00 0.00000E+00
 -1        94 0.00000E+00 0.00000E+00 0.00000E+00
 -1        95 0.00000E+00 0.00000E+00 0.00000E+00
 -1        96 0.00000E+00 0.00000E+00 0.00000E+00
 -1        97 0.00000E+00 0.00000E+00 0.00000E+00
 -1        98 0.00000E+00 0.00000E+00 0.00000E+00
 -1        99 0.00000E+00 0.00000E+00 0.00000E+00
 -1       100 0.00000E+00 0.00000E+00 0.00000E+00
 -1       101 0.00000E+00 0.00000E+00 0.00000E+00
 -1       102 0.00000E+00 0.00000E+00 0.00000E+00
 -1       103 0.00000E+00 0.00000E+00 0.00000E+00
 -1       104 0.00000E+00 0.00000E+00 0.00000E+00
 -1       105 0.00000E+00 0.00000E+00 0.00000E+00
 -1       106 0.00000E+00 0.00000E+00 0.00000E+00
 -1       107 0.00000E+00 0.00000E+00 0.00000E+00
 -1       108 0.00000E+00 0.00000E+00 0.00000E+00
 -1       109 0.00000E+00 0.00000E+00 0.00000E+00
 -1       110 0.00000E+00 0.00000E+00 0.00000E+00
 -1       111 0.00000E+00 0.00000E+00 0.00000E+00
 -1       112 0.00000E+00 0.00000E+00 0.00000E+00
 -1       113 0.00000E+00 0.00000E+00 0.00000E+00
 -1       114 0.00000E+00 0.00000E+00 0.00000E+00
 -1       115 0.00000E+00 0.00000E+00 0.00000E+00
 -1       116 0.00000E+00 0.00000E+00 0.00000E+00
 -1       117 0.00000E+00 0.00000E+00 0.00000E+00
 -1       118 0.00000E+00 0.00000E+00 0.00000E+00
 -1       119 0.00000E+00 0.00000E+00 0.00000E+00
 -1       120 0.00000E+00 0.00000E+00 0.00000E+00
 -1       121 0.00000E+00 0.00000E+00 0.00000E+00
 -1       122 0.00000E+00 0.00000E+00 0.00000E+00
 -1       123 0.00000E+00 0.00000E+00 0.00000E+00
 -1       124 0.00000E+00 0.00000E+00 0.00000E+00
 -1       125 0.00000E+00 0.00000E+00 0.00000E+00
 -1       126 0.00000E+00 0.00000E+00 0.00000E+00
 -1       127 0.00000E+00 0.00000E+00 0.00000E+00
 -1       128 0.00000E+00 0.00000E+00 0.00000E+00
 -1       129 0.00000E+00 0.00000E+00 0.00000E+00
 -1       130 0.00000E+00 0.00000E+00 0.00000E+00
 -1       131 0.00000E+00 0.00000E+00 0.00000E+00
 -1       132 0.00000E+00 0.00000E+00 0.00000E+00
 -1       133 0.00000E+00 0.00000E+00 0.00000E+00
 -1       134 0.00000E+00 0.00000E+00 0.00000E+00
 -1       135 0.00000E+00 0.00000E+00 0.00000E+00
 -1       136 0.00000E+00 0.00000E+00 0.00000E+00
 -1       137 0.00000E+00 0.00000E+00 0.00000E+00
 -1       138 0.00000E+00 0.00000E+00 0.00000E+00
 -1       139 0.00000E+00 0.00000E+00 0.00000E+00
 -1       140 0.00000E+00 0.00000E+00 0.00000E+00
 -1       141 0.00000E+00 0.00000E+00 0.00000E+00
 -1       142 0.00000E+00 0.00000E+00 0.00000E+00
 -1       143 0.00000E+00 0.00000E+00 0.00000E+00
 -1       144 0.00000E+00 0.00000E+00 0.00000E+00
 -1       145 0.00000E+00 0.00000E+00 0.00000E+00
 -1       146 0.00000E+00 0.00000E+00 0.00000E+00
 -1       147 0.00000E+00 0.00000E+00 0.00000E+00
 -1       148 0.00000E+00 0.00000E+00 0.00000E+00
 -1       149 0.00000E+00 0.00000E+00 0.00000E+00
 -1       150 0.00000E+00 0.00000E+00 0.00000E+00
 -1       151 0.00000E+00 0.00000E+00 0.00000E+00
 -1       152 2.32831E-10-1.16415E-10 0.00000E+00
 -1       153 4.65661E-10 0.00000E+00 0.00000E+00
 -1       154 0.00000E+00 0.00000E+00 0.00000E+00
 -1       155 0.00000E+00 0.00000E+00 0.00000E+00
 -1       156 0.00000E+00 0.00000E+00 0.00000E+00
 -1       157 0.00000E+00 0.00000E+00 0.00000E+00
 -1       158 0.00000E+00 0.00000E+00 0.00000E+00
 -1       159 0.00000E+00 0.00000E+00 0.00000E+00
 -1       160 0.00000E+00 0.00000E+00 0.00000E+00
 -1       161 0.00000E+00 0.00000E+00 0.00000E+00
 -1       162 0.00000E+00 0.00000E+00 0.00000E+00
 -1       163 0.00000E+00 0.00000E+00 0.00000E+00
 -1       164 0.00000E+00 0.00000E+00 0.00000E+00
 -1       165-7.45058E-09 0.00000E+00 0.00000E+00
 -1       166 1.49012E-08 0.00000E+00 0.00000E+00
 -1       167 0.00000E+00 0.00000E+00 0.00000E+00
 -1       168 0.00000E+00 0.00000E+00 0.00000E+00
 -1       169 0.00000E+00 0.00000E+00 0.00000E+00
 -1       170 2.98023E-08 0.00000E+00 0.00000E+00
 -1       171 0.00000E+00 0.00000E+00 0.00000E+00
 -1       172 2.98023E-08 0.00000E+00 0.00000E+00
 -1       173 0.00000E+00 0.00000E+00 0.00000E+00
 -1       174-7.45058E-09 0.00000E+00 0.00000E+00
 -1       175 0.00000E+00 0.00000E+00 0.00000E+00
 -1       176 0.00000E+00-5.82077E-11 0.00000E+00
 -1       177-2.32831E-10-5.82077E-11 0.00000E+00
 -1       178 4.65661E-10-2.91038E-11 0.00000E+00
 -1       179 0.00000E+00 0.00000E+00 0.00000E+00
 -1       180-4.65661E-10 0.00000E+00 0.00000E+00
 -1       181 0.00000E+00-2.91038E-11 0.00000E+00
 -1       182 9.31323E-10 0.00000E+00 0.00000E+00
 -1       183 0.00000E+00 1.16415E-10 0.00000E+00
 -1       184 0.00000E+00 0.00000E+00 0.00000E+00
 -1       185 0.00000E+00 4.65661E-10 0.00000E+00
 -1       186 0.00000E+00 0.00000E+00 0.00000E+00
 -1       187-3.72529E-09 0.00000E+00 0.00000E+00
 -1       188 0.00000E+00-1.86265E-09 0.00000E+00
 -1       189 7.45058E-09-1.86265E-09 0.00000E+00
 -1       190-7.45058E-09 0.00000E+00 0.00000E+00
 -1       191-1.49012E-08 0.00000E+00 0.00000E+00
 -1       192 1.49012E-08 0.00000E+00 0.00000E+00
 -1       193 0.00000E+00 3.72529E-09 0.00000E+00
 -1       194 0.00000E+00-3.72529E-09 0.00000E+00
 -1       195 1.49012E-08 0.00000E+00 0.00000E+00
 -1       196 1.49012E-08-7.45058E-09 0.00000E+00
 -1       197 7.45058E-09 0.00000E+00 0.00000E+00
 -1       198-1.86265E-09-7.45058E-09 0.00000E+00
 -1       199 0.00000E+00 0.00000E+00 0.00000E+00
 -1       200 0.00000E+00 0.00000E+00 0.00000E+00
 -1       201 0.00000E+00 0.00000E+00 0.00000E+00
 -1       202 0.00000E+00 0.00000E+00 0.00000E+00
 -1       203 0.00000E+00 0.00000E+00 0.00000E+00
 -1       204 0.00000E+00 0.00000E+00 0.00000E+00
 -1       205 0.00000E+00 0.00000E+00 0.00000E+00
 -1       206 0.00000E+00 0.00000E+00 0.00000E+00
 -1       207 0.00000E+00 0.00000E+00 0.00000E+00
 -1       208 0.00000E+00 0.00000E+00 0.00000E+00
 -1       209 0.00000E+00 0.00000E+00 0.00000E+00
 -1       210 0.00000E+00 0.00000E+00 0.00000E+00
 -1       211 0.00000E+00 0.00000E+00 0.00000E+00
 -1       212 0.00000E+00 0.00000E+00 0.00000E+00
 -1       213 0.00000E+00 0.00000E+00 0.00000E+00
 -1       214 0.00000E+00 0.00000E+00 0.00000E+00
 -1       215 0.00000E+00 0.00000E+00 0.00000E+00
 -1       216 0.00000E+00 0.00000E+00 0.00000E+00
 -1       217 0.00000E+00 0.00000E+00 0.00000E+00
 -1       218 0.00000E+00 0.00000E+00 0.00000E+00
 -1       219 0.00000E+00 0.00000E+00 0.00000E+00
 -1       220 0.00000E+00 0.00000E+00 0.00000E+00
 -1       221 0.00000E+00 0.00000E+00 0.00000E+00
 -1       222 0.00000E+00 0.00000E+00 0.00000E+00
 -1       223 0.00000E+00 0.00000E+00 0.00000E+00
 -1       224 0.00000E+00 0.00000E+00 0.00000E+00
 -1       225 0.00000E+00 0.00000E+00 0.00000E+00
 -1       226 0.00000E+00 0.00000E+00 0.00000E+00
 -1       227 0.00000E+00 0.00000E+00 0.00000E+00
 -1       228 0.00000E+00 0.00000E+00 0.00000E+00
 -1       229 0.00000E+00 0.00000E+00 0.00000E+00
 -1       230 0.00000E+00 0.00000E+00 0.00000E+00
 -1       231 0.00000E+00 0.00000E+00 0.00000E+00
 -1       232 0.00000E+00 0.00000E+00 0.00000E+00
 -1       233 0.00000E+00 0.00000E+00 0.00000E+00
 -1       234 0.00000E+00 0.00000E+00 0.00000E+00
 -1       235 0.00000E+00 0.00000E+00 0.00000E+00
 -1       236 0.00000E+00 0.00000E+00 0.00000E+00
 -1       237 0.00000E+00 0.00000E+00 0.00000E+00
 -1       238 0.00000E+00 0.00000E+00 0.00000E+00
 -1       239 0.00000E+00 0.00000E+00 0.00000E+00
 -1       240 0.00000E+00 0.00000E+00 0.00000E+00
 -1       241 0.00000E+00 0.00000E+00 0.00000E+00
 -1       242 0.00000E+00 0.00000E+00 0.00000E+00
 -1       243 0.00000E+00 0.00000E+00 0.00000E+00
 -1       244 0.00000E+00 0.00000E+00 0.00000E+00
 -1       245 0.00000E+00 0.00000E+00 0.00000E+00
 -1       246 0.00000E+00 0.00000E+00 0.00000E+00
 -1       247 0.00000E+00 0.00000E+00 0.00000E+00
 -1       248 0.00000E+00 0.00000E+00 0.00000E+00
 -1       249 0.00000E+00 0.00000E+00 0.00000E+00
 -1       250 0.00000E+00 0.00000E+00 0.00000E+00
 -1       251 0.00000E+00 0.00000E+00 0.00000E+00
 -1       252 0.00000E+00 0.00000E+00 0.00000E+00
 -1       253 0.00000E+00 0.00000E+00 0.00000E+00
 -1       254 0.00000E+00 0.00000E+00 0.00000E+00
 -1       255 0.00000E+00 0.00000E+00 0.00000E+00
 -1       256 0.00000E+00 0.00000E+00 0.00000E+00
 -1       257 0.00000E+00 0.00000E+00 0.00000E+00
 -1       258 0.00000E+00 0.00000E+00 0.00000E+00
 -1       259 0.00000E+00 0.00000E+00 0.00000E+00
 -1       260 0.00000E+00 0.00000E+00 0.00000E+00
 -1       261 0.00000E+00 0.00000E+00 0.00000E+00
 -1       262 0.00000E+00 0.00000E+00 0.00000E+00
 -1       263 0.00000E+00 0.00000E+00 0.00000E+00
 -1       264 0.00000E+00 0.00000E+00 0.00000E+00
 -1       265 0.00000E+00 0.00000E+00 0.00000E+00
 -1       266 0.00000E+00 0.00000E+00 0.00000E+00
 -1       267 0.00000E+00 0.00000E+00 0.00000E+00
 -1       268 0.00000E+00 0.00000E+00 0.00000E+00
 -1       269 0.00000E+00 0.00000E+00 0.00000E+00
 -1       270 0.00000E+00 0.00000E+00 0.00000E+00
 -1       271 0.00000E+00 0.00000E+00 0.00000E+00
 -1       272 0.00000E+00 0.00000E+00 0.00000E+00
 -1       273 0.00000E+00 0.00000E+00 0.00000E+00
 -1       274 0.00000E+00 0.00000E+00 0.00000E+00
 -1       275 0.00000E+00 0.00000E+00 0.00000E+00
 -1       276 0.00000E+00 0.00000E+00 0.00000E+00
 -1       277 0.00000E+00 0.00000E+00 0.00000E+00
 -1       278 0.00000E+00 0.00000E+00 0.00000E+00
 -1       279 0.00000E+00 0.00000E+00 0.00000E+00
 -1       280 0.00000E+00 0.00000E+00 0.00000E+00
 -1       281 0.00000E+00 0.00000E+00 0.00000E+00
 -1       282 0.00000E+00 0.00000E+00 0.00000E+00
 -1       283 0.00000E+00 0.00000E+00 0.00000E+00
 -1       284 0.00000E+00 0.00000E+00 0.00000E+00
 -1       285 0.00000E+00 0.00000E+00 0.00000E+00
 -1       286 0.00000E+00 0.00000E+00 0.00000E+00
 -1       287 0.00000E+00 0.00000E+00 0.00000E+00
 -1       288 0.00000E+00 0.00000E+00 0.00000E+00
 -1       289 0.00000E+00 0.00000E+00 0.00000E+00
 -1       290 0.00000E+00 0.00000E+00 0.00000E+00
 -1       291 0.00000E+00 0.00000E+00 0.00000E+00
 -1       292 0.00000E+00 0.00000E+00 0.00000E+00
 -1       293 0.00000E+00 0.00000E+00 0.00000E+00
 -1       294 0.00000E+00 0.00000E+00 0.00000E+00
 -1       295 0.00000E+00 0.00000E+00 0.00000E+00
 -1       296 0.00000E+00 0.00000E+00 0.00000E+00
 -1       297 0.00000E+00 0.00000E+00 0.00000E+00
 -1       298 0.00000E+00 0.00000E+00 0.00000E+00
 -1       299 0.00000E+00 0.00000E+00 0.00000E+00
 -1       300 0.00000E+00 0.00000E+00 0.00000E+00
 -1       301 0.00000E+00 0.00000E+00 0.00000E+00
 -1       302 0.00000E+00 0.00000E+00 0.00000E+00
 -1       303 0.00000E+00 0.00000E+00 0.00000E+00
 -1       304 0.00000E+00 0.00000E+00 0.00000E+00
 -1       305 0.00000E+00 0.00000E+00 0.00000E+00
 -1       306 0.00000E+00 0.00000E+00 0.00000E+00
 -1       307 0.00000E+00 0.00000E+00 0.00000E+00
 -1       308 0.00000E+00 0.00000E+00 0.00000E+00
 -1       309 0.00000E+00 0.00000E+00 0.00000E+00
 -1       310 0.00000E+00 0.00000E+00 0.00000E+00
 -1       311 0.00000E+00 0.00000E+00 0.00000E+00
 -1       312 0.00000E+00 0.00000E+00 0.00000E+00
 -1       313 0.00000E+00 0.00000E+00 0.00000E+00
 -1       314 0.00000E+00 0.00000E+00 0.00000E+00
 -1       315 0.00000E+00 0.00000E+00 0.00000E+00
 -1       316 0.00000E+00 0.00000E+00 0.00000E+00
 -1       317 0.00000E+00 0.00000E+00 0.00000E+00
 -1       318 0.00000E+00 0.00000E+00 0.00000E+00
 -1       319 0.00000E+00 0.00000E+00 0.00000E+00
 -1       320 0.00000E+00 0.00000E+00 0.00000E+00
 -1       321 0.00000E+00 0.00000E+00 0.00000E+00
 -1       322 0.00000E+00 0.00000E+00 0.00000E+00
 -1       323 0.00000E+00 0.00000E+00 0.00000E+00
 -1       324 0.00000E+00 0.00000E+00 0.00000E+00
 -1       325 0.00000E+00 0.00000E+00 0.00000E+00
 -1       326 0.00000E+00 0.00000E+00 0.00000E+00
 -1       327 0.00000E+00 0.00000E+00 0.00000E+00
 -1       328 0.00000E+00 0.00000E+00 0.00000E+00
 -1       329 0.00000E+00 0.00000E+00 0.00000E+00
 -1       330 0.00000E+00 0.00000E+00 0.00000E+00
 -1       331 0.00000E+00 0.00000E+00 0.00000E+00
 -1       332 0.00000E+00 0.00000E+00 0.00000E+00
 -1       333 0.00000E+00 0.00000E+00 0.00000E+00
 -1       334 0.00000E+00 0.00000E+00 0.00000E+00
 -1       335 0.00000E+00 0.00000E+00 0.00000E+00
 -1       336 0.00000E+00 0.00000E+00 0.00000E+00
 -1       337 0.00000E+00 0.00000E+00 0.00000E+00
 -1       338 0.00000E+00 0.00000E+00 0.00000E+00
 -1       339 0.00000E+00 0.00000E+00 0.00000E+00
 -1       340 0.00000E+00 0.00000E+00 0.00000E+00
 -1       341 0.00000E+00 0.00000E+00 0.00000E+00
 -1       342 0.00000E+00 0.00000E+00 0.00000E+00
 -1       343 0.00000E+00 0.00000E+00 0.00000E+00
 -1       344 0.00000E+00 0.00000E+00 0.00000E+00
 -1       345 0.00000E+00 0.00000E+00 0.00000E+00
 -1       346 0.00000E+00 0.00000E+00 0.00000E+00
 -1       347 0.00000E+00 0.00000E+00 0.00000E+00
 -1       348 0.00000E+00 0.00000E+00 0.00000E+00
 -1       349 0.00000E+00 0.00000E+00 0.00000E+00
 -1       350 0.00000E+00 0.00000E+00 0.00000E+00
 -1       351 0.00000E+00 0.00000E+00 0.00000E+00
 -1       352 0.00000E+00 0.00000E+00 0.00000E+00
 -1       353 0.00000E+00 0.00000E+00 0.00000E+00
 -1       354 0.00000E+00 0.00000E+00 0.00000E+00
 -1       355 0.00000E+00 0.00000E+00 0.00000E+00
 -1       356 0.00000E+00 0.00000E+00 0.00000E+00
 -1       357 0.00000E+00 0.00000E+00 0.00000E+00
 -1       358 0.00000E+00 0.00000E+00 0.00000E+00
 -1       359 0.00000E+00 0.00000E+00 0.00000E+00
 -1       360 0.00000E+00 0.00000E+00 0.00000E+00
 -1       361 0.00000E+00 0.00000E+00 0.00000E+00
 -1       362 0.00000E+00 0.00000E+00 0.00000E+00
 -1       363 0.00000E+00 0.00000E+00 0.00000E+00
 -1       364 0.00000E+00 0.00000E+00 0.00000E+00
 -1       365 0.00000E+00 0.00000E+00 0.00000E+00
 -1       366 0.00000E+00 0.00000E+00 0.00000E+00
 -1       367 0.00000E+00 0.00000E+00 0.00000E+00
 -1       368 0.00000E+00 0.00000E+00 0.00000E+00
 -1       369 0.00000E+00 0.00000E+00 0.00000E+00
 -1       370 0.00000E+00 0.00000E+00 0.00000E+00
 -1       371 0.00000E+00 0.00000E+00 0.00000E+00
 -1       372 0.00000E+00 0.00000E+00 0.00000E+00
 -1       373 0.00000E+00 0.00000E+00 0.00000E+00
 -1       374 0.00000E+00 0.00000E+00 0.00000E+00
 -1       375 0.00000E+00 0.00000E+00 0.00000E+00
 -1       376 0.00000E+00 0.00000E+00 0.00000E+00
 -1       377 0.00000E+00 0.00000E+00 0.00000E+00
 -1       378 0.00000E+00 0.00000E+00 0.00000E+00
 -1       379 0.00000E+00 0.00000E+00 0.00000E+00
 -1       380 0.00000E+00 0.00000E+00 0.00000E+00
 -1       381 0.00000E+00 0.00000E+00 0.00000E+00
 -1       382 0.00000E+00 0.00000E+00 0.00000E+00
 -1       383 0.00000E+00 0.00000E+00 0.00000E+00
 -1       384 0.00000E+00 0.00000E+00 0.00000E+00
 -1       385 0.00000E+00 0.00000E+00 0.00000E+00
 -1       386 0.00000E+00 0.00000E+00 0.00000E+00
 -1       387 0.00000E+00 0.00000E+00 0.00000E+00
 -1       388 0.00000E+00 0.00000E+00 0.00000E+00
 -1       389 0.00000E+00 0.00000E+00 0.00000E+00
 -1       390 0.00000E+00 0.00000E+00 0.00000E+00
 -1       391 0.00000E+00 0.00000E+00 0.00000E+00
 -1       392 0.00000E+00 0.00000E+00 0.00000E+00
 -1       393 0.00000E+00 0.00000E+00 0.00000E+00
 -1       394 0.00000E+00 0.00000E+00 0.00000E+00
 -1       395 0.00000E+00 0.00000E+00 0.00000E+00
 -1       396 0.00000E+00 0.00000E+00 0.00000E+00
 -1       397 0.00000E+00 0.00000E+00 0.00000E+00
 -1       398 0.00000E+00 0.00000E+00 0.00000E+00
 -1       399 0.00000E+00 0.00000E+00 0.00000E+00
 -1       400 0.00000E+00 0.00000E+00 0.00000E+00
 -1       401 0.00000E+00 0.00000E+00 0.00000E+00
 -1       402 0.00000E+00 0.00000E+00 0.00000E+00
 -1       403 0.00000E+00 0.00000E+00 0.00000E+00
 -1       404 0.00000E+00 0.00000E+00 0.00000E+00
 -1       405 0.00000E+00 0.00000E+00 0.00000E+00
 -1       406 0.00000E+00 0.00000E+00 0.00000E+00
 -1       407 0.00000E+00 0.00000E+00 0.00000E+00
 -1       408 0.00000E+00 0.00000E+00 0.00000E+00
 -1       409 0.00000E+00 0.00000E+00 0.00000E+00
 -1       410 0.00000E+00 0.00000E+00 0.00000E+00
 -1       411 0.00000E+00 0.00000E+00 0.00000E+00
 -1       412 0.00000E+00 0.00000E+00 0.00000E+00
 -1       413 0.00000E+00 0.00000E+00 0.00000E+00
 -1       414 0.00000E+00 0.00000E+00 0.00000E+00
 -1       415 0.00000E+00 0.00000E+00 0.00000E+00
 -1       416 0.00000E+00 0.00000E+00 0.00000E+00
 -1       417 0.00000E+00 0.00000E+00 0.00000E+00
 -1       418 0.00000E+00 0.00000E+00 0.00000E+00
 -1       419 0.00000E+00 0.00000E+00 0.00000E+00
 -1       420 0.00000E+00 0.00000E+00 0.00000E+00
 -1       421 0.00000E+00 0.00000E+00 0.00000E+00
 -1       422 0.00000E+00 0.00000E+00 0.00000E+00
 -1       423 0.00000E+00 0.00000E+00 0.00000E+00
 -1       424 0.00000E+00 0.00000E+00 0.00000E+00
 -1       425 0.00000E+00 0.00000E+00 0.00000E+00
 -1       426 0.00000E+00 0.00000E+00 0.00000E+00
 -1       427 0.00000E+00 0.00000E+00 0.00000E+00
 -1       428 0.00000E+00 0.00000E+00 0.00000E+00
 -1       429 0.00000E+00 0.00000E+00 0.00000E+00
 -1       430 0.00000E+00 0.00000E+00 0.00000E+00
 -1       431 0.00000E+00 0.00000E+00 0.00000E+00
 -1       432 0.00000E+00 0.00000E+00 0.00000E+00
 -1       433 0.00000E+00 0.00000E+00 0.00000E+00
 -1       434 0.00000E+00 0.00000E+00 0.00000E+00
 -1       435 0.00000E+00 0.00000E+00 0.00000E+00
 -1       436 0.00000E+00 0.00000E+00 0.00000E+00
 -1       437 0.00000E+00 0.00000E+00 0.00000E+00
 -1       438 0.00000E+00 0.00000E+00 0.00000E+00
 -1       439 0.00000E+00 0.00000E+00 0.00000E+00
 -1       440 0.00000E+00 0.00000E+00 0.00000E+00
 -1       441 0.00000E+00 0.00000E+00 0.00000E+00
 -1       442 0.00000E+00 0.00000E+00 0.00000E+00
 -1       443 0.00000E+00 0.00000E+00 0.00000E+00
 -1       444 0.00000E+00 0.00000E+00 0.00000E+00
 -1       445 0.00000E+00 0.00000E+00 0.00000E+00
 -1       446 0.00000E+00 0.00000E+00 0.00000E+00
 -1       447 0.00000E+00 0.00000E+00 0.00000E+00
 -1       448 0.00000E+00 0.00000E+00 0.00000E+00
 -1       449 0.00000E+00 0.00000E+00 0.00000E+00
 -1       450 0.00000E+00 0.00000E+00 0.00000E+00
 -1       451 0.00000E+00 0.00000E+00 0.00000E+00
 -1       452 0.00000E+00 0.00000E+00 0.00000E+00
 -1       453 0.00000E+00 0.00000E+00 0.00000E+00
 -1       454 0.00000E+00 0.00000E+00 0.00000E+00
 -1       455 0.00000E+00 0.00000E+00 0.00000E+00
 -1       456 0.00000E+00 0.00000E+00 0.00000E+00
 -1       457 0.00000E+00 0.00000E+00 0.00000E+00
 -1       458 0.00000E+00 0.00000E+00 0.00000E+00
 -1       459 0.00000E+00 0.00000E+00 0.00000E+00
 -1       460 0.00000E+00 0.00000E+00 0.00000E+00
 -1       461 0.00000E+00 0.00000E+00 0.00000E+00
 -1       462 0.00000E+00 0.00000E+00 0.00000E+00
 -1       463 0.00000E+00 0.00000E+00 0.00000E+00
 -1       464 0.00000E+00 0.00000E+00 0.00000E+00
 -1       465 0.00000E+00 0.00000E+00 0.00000E+00
 -1       466 0.00000E+00 0.00000E+00 0.00000E+00
 -1       467 0.00000E+00 0.00000E+00 0.00000E+00
 -1       468 0.00000E+00 0.00000E+00 0.00000E+00
 -1       469 0.00000E+00 0.00000E+00 0.00000E+00
 -1       470 0.00000E+00 0.00000E+00 0.00000E+00
 -1       471 0.00000E+00 0.00000E+00 0.00000E+00
 -1       472 0.00000E+00 0.00000E+00 0.00000E+00
 -1       473 0.00000E+00 0.00000E+00 0.00000E+00
 -1       474 0.00000E+00 0.00000E+00 0.00000E+00
 -1       475 0.00000E+00 0.00000E+00 0.00000E+00
 -1       476 0.00000E+00 0.00000E+00 0.00000E+00
 -1       477 0.00000E+00 0.00000E+00 0.00000E+00
 -1       478 0.00000E+00 0.00000E+00 0.00000E+00
 -1       479 0.00000E+00 0.00000E+00 0.00000E+00
 -1       480 0.00000E+00 0.00000E+00 0.00000E+00
 -1       481 0.00000E+00 0.00000E+00 0.00000E+00
 -1       482 0.00000E+00 0.00000E+00 0.00000E+00
 -1       483 0.00000E+00 0.00000E+00 0.00000E+00
 -1       484 0.00000E+00 0.00000E+00 0.00000E+00
 -1       485 0.00000E+00 0.00000E+00 0.00000E+00
 -1       486 0.00000E+00 0.00000E+00 0.00000E+00
 -1       487 0.00000E+00 0.00000E+00 0.00000E+00
 -1       488 0.00000E+00 0.00000E+00 0.00000E+00
 -1       489 0.00000E+00 0.00000E+00 0.00000E+00
 -1       490 0.00000E+00 0.00000E+00 0.00000E+00
 -1       491 0.00000E+00 0.00000E+00 0.00000E+00
 -1       492 0.00000E+00 0.00000E+00 0.00000E+00
 -1       493 0.00000E+00 0.00000E+00 0.00000E+00
 -1       494 0.00000E+00 0.00000E+00 0.00000E+00
 -1       495 0.00000E+00 0.00000E+00 0.00000E+00
 -1       496 0.00000E+00 0.00000E+00 0.00000E+00
 -1       497 0.00000E+00 0.00000E+00 0.00000E+00
 -1       498 0.00000E+00 0.00000E+00 0.00000E+00
 -1       499 0.00000E+00 0.00000E+00 0.00000E+00
 -1       500 0.00000E+00 0.00000E+00 0.00000E+00
 -1       501 0.00000E+00 0.00000E+00 0.00000E+00
 -1       502 0.00000E+00 0.00000E+00 0.00000E+00
 -1       503 0.00000E+00 0.00000E+00 0.00000E+00
 -1       504 0.00000E+00 0.00000E+00 0.00000E+00
 -1       505 0.00000E+00 0.00000E+00 0.00000E+00
 -1       506 0.00000E+00 0.00000E+00 0.00000E+00
 -1       507 0.00000E+00 0.00000E+00 0.00000E+00
 -1       508 0.00000E+00 0.00000E+00 0.00000E+00
 -1       509 0.00000E+00 0.00000E+00 0.00000E+00
 -1       510 0.00000E+00 0.00000E+00 0.00000E+00
 -1       511 0.00000E+00 0.00000E+00 0.00000E+00
 -1       512 0.00000E+00 0.00000E+00 0.00000E+00
 -1       513 0.00000E+00 0.00000E+00 0.00000E+00
 -1       514 0.00000E+00 0.00000E+00 0.00000E+00
 -1       515 0.00000E+00 0.00000E+00 0.00000E+00
 -1       516 0.00000E+00 0.00000E+00 0.00000E+00
 -1       517 0.00000E+00 0.00000E+00 0.00000E+00
 -1       518 0.00000E+00 0.00000E+00 0.00000E+00
 -1       519 0.00000E+00 0.00000E+00 0.00000E+00
 -1       520 0.00000E+00 0.00000E+00 0.00000E+00
 -1       521 0.00000E+00 0.00000E+00 0.00000E+00
 -1       522 0.00000E+00 0.00000E+00 0.00000E+00
 -1       523 0.00000E+00 0.00000E+00 0.00000E+00
 -1       524 0.00000E+00 0.00000E+00 0.00000E+00
 -1       525 0.00000E+00 0.00000E+00 0.00000E+00
 -1       526 0.00000E+00 0.00000E+00 0.00000E+00
 -1       527 0.00000E+00 0.00000E+00 0.00000E+00
 -1       528 0.00000E+00 0.00000E+00 0.00000E+00
 -1       529 0.00000E+00 0.00000E+00 0.00000E+00
 -1       530 0.00000E+00 0.00000E+00 0.00000E+00
 -1       531 0.00000E+00 0.00000E+00 0.00000E+00
 -1       532 0.00000E+00 0.00000E+00 0.00000E+00
 -1       533 0.00000E+00 0.00000E+00 0.00000E+00
 -1       534 0.00000E+00 0.00000E+00 0.00000E+00
 -1       535 0.00000E+00 0.00000E+00 0.00000E+00
 -1       536 0.00000E+00 0.00000E+00 0.00000E+00
 -1       537 0.00000E+00 0.00000E+00 0.00000E+00
 -1       538 0.00000E+00 0.00000E+00 0.00000E+00
 -1       539 0.00000E+00 0.00000E+00 0.00000E+00
 -1       540 0.00000E+00 0.00000E+00 0.00000E+00
 -1       541 0.00000E+00 0.00000E+00 0.00000E+00
 -1       542 0.00000E+00 0.00000E+00 0.00000E+00
 -1       543 0.00000E+00 0.00000E+00 0.00000E+00
 -1       544 0.00000E+00 0.00000E+00 0.00000E+00
 -1       545 0.00000E+00 0.00000E+00 0.00000E+00
 -1       546 0.00000E+00 0.00000E+00 0.00000E+00
 -1       547 0.00000E+00 0.00000E+00 0.00000E+00
 -1       548 0.00000E+00 0.00000E+00 0.00000E+00
 -1       549 0.00000E+00 0.00000E+00 0.00000E+00
 -1       550 0.00000E+00 0.00000E+00 0.00000E+00
 -1       551 0.00000E+00 0.00000E+00 0.00000E+00
 -1       552 0.00000E+00 0.00000E+00 0.00000E+00
 -1       553 0.00000E+00 0.00000E+00 0.00000E+00
 -1       554 0.00000E+00 0.00000E+00 0.00000E+00
 -1       555 0.00000E+00 0.00000E+00 0.00000E+00
 -1       556 0.00000E+00 0.00000E+00 0.00000E+00
 -1       557 0.00000E+00 0.00000E+00 0.00000E+00
 -1       558 0.00000E+00 0.00000E+00 0.00000E+00
 -1       559 0.00000E+00 0.00000E+00 0.00000E+00
 -1       560 0.00000E+00 0.00000E+00 0.00000E+00
 -1       561 0.00000E+00 0.00000E+00 0.00000E+00
 -1       562 0.00000E+00 0.00000E+00 0.00000E+00
 -1       563 0.00000E+00 0.00000E+00 0.00000E+00
 -1       564 0.00000E+00 0.00000E+00 0.00000E+00
 -1       565 0.00000E+00 0.00000E+00 0.00000E+00
 -1       566 0.00000E+00 0.00000E+00 0.00000E+00
 -1       567 0.00000E+00 0.00000E+00 0.00000E+00
 -1       568 0.00000E+00 0.00000E+00 0.00000E+00
 -1       569 0.00000E+00 0.00000E+00 0.00000E+00
 -1       570 0.00000E+00 0.00000E+00 0.00000E+00
 -1       571 0.00000E+00 0.00000E+00 0.00000E+00
 -1       572 0.00000E+00 0.00000E+00 0.00000E+00
 -1       573 0.00000E+00 0.00000E+00 0.00000E+00
 -1       574 0.00000E+00 0.00000E+00 0.00000E+00
 -1       575 0.00000E+00 0.00000E+00 0.00000E+00
 -1       576 0.00000E+00 0.00000E+00 0.00000E+00
 -1       577 0.00000E+00 0.00000E+00 0.00000E+00
 -1       578 0.00000E+00 0.00000E+00 0.00000E+00
 -1       579 0.00000E+00 0.00000E+00 0.00000E+00
 -1       580 0.00000E+00 0.00000E+00 0.00000E+00
 -1       581 0.00000E+00 0.00000E+00 0.00000E+00
 -1       582 0.00000E+00 0.00000E+00 0.00000E+00
 -1       583 0.00000E+00 0.00000E+00 0.00000E+00
 -1       584 0.00000E+00 0.00000E+00 0.00000E+00
 -1       585 0.00000E+00 0.00000E+00 0.00000E+00
 -1       586 0.00000E+00 0.00000E+00 0.00000E+00
 -1       587 0.00000E+00 0.00000E+00 0.00000E+00
 -1       588 0.00000E+00 0.00000E+00 0.00000E+00
 -1       589 0.00000E+00 0.00000E+00 0.00000E+00
 -1       590 0.00000E+00 0.00000E+00 0.00000E+00
 -1       591 0.00000E+00 0.00000E+00 0.00000E+00
 -1       592 0.00000E+00 0.00000E+00 0.00000E+00
 -1       593 0.00000E+00 0.00000E+00 0.00000E+00
 -1       594 0.00000E+00 0.00000E+00 0.00000E+00
 -1       595 0.00000E+00 0.00000E+00 0.00000E+00
 -1       596 0.00000E+00 0.00000E+00 0.00000E+00
 -1       597 0.00000E+00 0.00000E+00 0.00000E+00
 -1       598 0.00000E+00 0.00000E+00 0.00000E+00
 -1       599 0.00000E+00 0.00000E+00 0.00000E+00
 -1       600 0.00000E+00 0.00000E+00 0.00000E+00
 -1       601 0.00000E+00 0.00000E+00 0.00000E+00
 -1       602 0.00000E+00 0.00000E+00 0.00000E+00
 -1       603 0.00000E+00 0.00000E+00 0.00000E+00
 -1       604 0.00000E+00 0.00000E+00 0.00000E+00
 -1       605 0.00000E+00 0.00000E+00 0.00000E+00
 -1       606 0.00000E+00 0.00000E+00 0.00000E+00
 -1       607 0.00000E+00 0.00000E+00 0.00000E+00
 -1       608 0.00000E+00 0.00000E+00 0.00000E+00
 -1       609 0.00000E+00 0.00000E+00 0.00000E+00
 -1       610 0.00000E+00 0.00000E+00 0.00000E+00
 -1       611 0.00000E+00 0.00000E+00 0.00000E+00
 -1       612 0.00000E+00 0.00000E+00 0.00000E+00
 -1       613 0.00000E+00 0.00000E+00 0.00000E+00
 -1       614 0.00000E+00 0.00000E+00 0.00000E+00
 -1       615 0.00000E+00 0.00000E+00 0.00000E+00
 -1       616 0.00000E+00 0.00000E+00 0.00000E+00
 -1       617 0.00000E+00 0.00000E+00 0.00000E+00
 -1       618 0.00000E+00 0.00000E+00 0.00000E+00
 -1       619 0.00000E+00 0.00000E+00 0.00000E+00
 -1       620 0.00000E+00 0.00000E+00 0.00000E+00
 -1       621 0.00000E+00 0.00000E+00 0.00000E+00
 -1       622 0.00000E+00 0.00000E+00 0.00000E+00
 -1       623 0.00000E+00 0.00000E+00 0.00000E+00
 -1       624 0.00000E+00 0.00000E+00 0.00000E+00
 -1       625 0.00000E+00 0.00000E+00 0.00000E+00
 -1       626 0.00000E+00 0.00000E+00 0.00000E+00
 -1       627 0.00000E+00 0.00000E+00 0.00000E+00
 -1       628 0.00000E+00 0.00000E+00 0.00000E+00
 -1       629 0.00000E+00 0.00000E+00 0.00000E+00
 -1       630 0.00000E+00 0.00000E+00 0.00000E+00
 -1       631 0.00000E+00 0.00000E+00 0.00000E+00
 -1       632 0.00000E+00 0.00000E+00 0.00000E+00
 -1       633 0.00000E+00 0.00000E+00 0.00000E+00
 -1       634 0.00000E+00 0.00000E+00 0.00000E+00
 -1       635 0.00000E+00 0.00000E+00 0.00000E+00
 -1       636 0.00000E+00 0.00000E+00 0.00000E+00
 -1       637 0.00000E+00 0.00000E+00 0.00000E+00
 -1       638 0.00000E+00 0.00000E+00 0.00000E+00
 -1       639 0.00000E+00 0.00000E+00 0.00000E+00
 -1       640 0.00000E+00 0.00000E+00 0.00000E+00
 -1       641 0.00000E+00 0.00000E+00 0.00000E+00
 -1       642 0.00000E+00 0.00000E+00 0.00000E+00
 -1       643 0.00000E+00 0.00000E+00 0.00000E+00
 -1       644 0.00000E+00 0.00000E+00 0.00000E+00
 -1       645 0.00000E+00 0.00000E+00 0.00000E+00
 -1       646 0.00000E+00 0.00000E+00 0.00000E+00
 -1       647 0.00000E+00 0.00000E+00 0.00000E+00
 -1       648 0.00000E+00 0.00000E+00 0.00000E+00
 -1       649 0.00000E+00 0.00000E+00 0.00000E+00
 -1       650 0.00000E+00 0.00000E+00 0.00000E+00
 -1       651 0.00000E+00 0.00000E+00 0.00000E+00
 -1       652 0.00000E+00 0.00000E+00 0.00000E+00
 -1       653 0.00000E+00 0.00000E+00 0.00000E+00
 -1       654 0.00000E+00 0.00000E+00 0.00000E+00
 -1       655 0.00000E+00 0.00000E+00 0.00000E+00
 -1       656 0.00000E+00 0.00000E+00 0.00000E+00
 -1       657 0.00000E+00 0.00000E+00 0.00000E+00
 -1       658 0.00000E+00 0.00000E+00 0.00000E+00
 -1       659 0.00000E+00 0.00000E+00 0.00000E+00
 -1       660 0.00000E+00 0.00000E+00 0.00000E+00
 -1       661 0.00000E+00 0.00000E+00 0.00000E+00
 -1       662 0.00000E+00 0.00000E+00 0.00000E+00
 -1       663 0.00000E+00 0.00000E+00 0.00000E+00
 -1       664 0.00000E+00 0.00000E+00 0.00000E+00
 -1       665 0.00000E+00 0.00000E+00 0.00000E+00
 -1       666 0.00000E+00 0.00000E+00 0.00000E+00
 -1       667 0.00000E+00 0.00000E+00 0.00000E+00
 -1       668 0.00000E+00 0.00000E+00 0.00000E+00
 -1       669 0.00000E+00 0.00000E+00 0.00000E+00
 -1       670 0.00000E+00 0.00000E+00 0.00000E+00
 -1       671 0.00000E+00 0.00000E+00 0.00000E+00
 -1       672 0.00000E+00 0.00000E+00 0.00000E+00
 -1       673 0.00000E+00 0.00000E+00 0.00000E+00
 -1       674 0.00000E+00 0.00000E+00 0.00000E+00
 -1       675 0.00000E+00 0.00000E+00 0.00000E+00
 -1       676 0.00000E+00 0.00000E+00 0.00000E+00
 -1       677 0.00000E+00 0.00000E+00 0.00000E+00
 -1       678 0.00000E+00 0.00000E+00 0.00000E+00
 -1       679 0.00000E+00 0.00000E+00 0.00000E+00
 -1       680 0.00000E+00 0.00000E+00 0.00000E+00
 -1       681 0.00000E+00 0.00000E+00 0.00000E+00
 -1       682 0.00000E+00 0.00000E+00 0.00000E+00
 -1       683 0.00000E+00 0.00000E+00 0.00000E+00
 -1       684 0.00000E+00 0.00000E+00 0.00000E+00
 -1       685 0.00000E+00 0.00000E+00 0.00000E+00
 -1       686 0.00000E+00 0.00000E+00 0.00000E+00
 -1       687 0.00000E+00 0.00000E+00 0.00000E+00
 -1       688 0.00000E+00 0.00000E+00 0.00000E+00
 -1       689 0.00000E+00 0.00000E+00 0.00000E+00
 -1       690 0.00000E+00 0.00000E+00 0.00000E+00
 -1       691 0.00000E+00 0.00000E+00 0.00000E+00
 -1       692 0.00000E+00 0.00000E+00 0.00000E+00
 -1       693 0.00000E+00 0.00000E+00 0.00000E+00
 -1       694 0.00000E+00 0.00000E+00 0.00000E+00
 -1       695 0.00000E+00 0.00000E+00 0.00000E+00
 -1       696 0.00000E+00 0.00000E+00 0.00000E+00
 -1       697 0.00000E+00 0.00000E+00 0.00000E+00
 -1       698 0.00000E+00 0.00000E+00 0.00000E+00
 -1       699 0.00000E+00 0.00000E+00 0.00000E+00
 -1       700 0.00000E+00 0.00000E+00 0.00000E+00
 -1       701 0.00000E+00 0.00000E+00 0.00000E+00
 -1       702 0.00000E+00 0.00000E+00 0.00000E+00
 -1       703 0.00000E+00 0.00000E+00 0.00000E+00
 -1       704 0.00000E+00 0.00000E+00 0.00000E+00
 -1       705 0.00000E+00 0.00000E+00 0.00000E+00
 -1       706 0.00000E+00 0.00000E+00 0.00000E+00
 -1       707 0.00000E+00 0.00000E+00 0.00000E+00
 -1       708 0.00000E+00 0.00000E+00 0.00000E+00
 -1       709 0.00000E+00 0.00000E+00 0.00000E+00
 -1       710 0.00000E+00 0.00000E+00 0.00000E+00
 -1       711 0.00000E+00 0.00000E+00 0.00000E+00
 -1       712 0.00000E+00 0.00000E+00 0.00000E+00
 -1       713 0.00000E+00 0.00000E+00 0.00000E+00
 -1       714 0.00000E+00 0.00000E+00 0.00000E+00
 -1       715 0.00000E+00 0.00000E+00 0.00000E+00
 -1       716 0.00000E+00 0.00000E+00 0.00000E+00
 -1       717 0.00000E+00 0.00000E+00 0.00000E+00
 -1       718 0.00000E+00 0.00000E+00 0.00000E+00
 -1       719 0.00000E+00 0.00000E+00 0.00000E+00
 -1       720 0.00000E+00 0.00000E+00 0.00000E+00
 -1       721 0.00000E+00 0.00000E+00 0.00000E+00
 -1       722 0.00000E+00 0.00000E+00 0.00000E+00
 -1       723 0.00000E+00 0.00000E+00 0.00000E+00
 -1       724 0.00000E+00 0.00000E+00 0.00000E+00
 -1       725 0.00000E+00 0.00000E+00 0.00000E+00
 -1       726 0.00000E+00 0.00000E+00 0.00000E+00
 -1       727 0.00000E+00 0.00000E+00 0.00000E+00
 -1       728 0.00000E+00 0.00000E+00 0.00000E+00
 -1       729 0.00000E+00 0.00000E+00 0.00000E+00
 -1       730 0.00000E+00 0.00000E+00 0.00000E+00
 -1       731 0.00000E+00 0.00000E+00 0.00000E+00
 -1       732 0.00000E+00 0.00000E+00 0.00000E+00
 -1       733 0.00000E+00 0.00000E+00 0.00000E+00
 -1       734 0.00000E+00 0.00000E+00 0.00000E+00
 -1       735 0.00000E+00 0.00000E+00 0.00000E+00
 -1       736 0.00000E+00 0.00000E+00 0.00000E+00
 -1       737 0.00000E+00 0.00000E+00 0.00000E+00
 -1       738 0.00000E+00 0.00000E+00 0.00000E+00
 -1       739 0.00000E+00 0.00000E+00 0.00000E+00
 -1       740 0.00000E+00 0.00000E+00 0.00000E+00
 -1       741 0.00000E+00 0.00000E+00 0.00000E+00
 -1       742 0.00000E+00 0.00000E+00 0.00000E+00
 -1       743 0.00000E+00 0.00000E+00 0.00000E+00
 -1       744 0.00000E+00 0.00000E+00 0.00000E+00
 -1       745 0.00000E+00 0.00000E+00 0.00000E+00
 -1       746 0.00000E+00 0.00000E+00 0.00000E+00
 -1       747 0.00000E+00 0.00000E+00 0.00000E+00
 -1       748 0.00000E+00 0.00000E+00 0.00000E+00
 -1       749 0.00000E+00 0.00000E+00 0.00000E+00
 -1       750 0.00000E+00 0.00000E+00 0.00000E+00
 -1       751 0.00000E+00 0.00000E+00 0.00000E+00
 -1       752 0.00000E+00 0.00000E+00 0.00000E+00
 -1       753 0.00000E+00 0.00000E+00 0.00000E+00
 -1       754 0.00000E+00 0.00000E+00 0.00000E+00
 -1       755 0.00000E+00 0.00000E+00 0.00000E+00
 -1       756 0.00000E+00 0.00000E+00 0.00000E+00
 -1       757 0.00000E+00 0.00000E+00 0.00000E+00
 -1       758 0.00000E+00 0.00000E+00 0.00000E+00
 -1       759 0.00000E+00 0.00000E+00 0.00000E+00
 -1       760 0.00000E+00 0.00000E+00 0.00000E+00
 -1       761 0.00000E+00 0.00000E+00 0.00000E+00
 -1       762 0.00000E+00 0.00000E+00 0.00000E+00
 -1       763 0.00000E+00 0.00000E+00 0.00000E+00
 -1       764 0.00000E+00 0.00000E+00 0.00000E+00
 -1       765 0.00000E+00 0.00000E+00 0.00000E+00
 -1       766 0.00000E+00 0.00000E+00 0.00000E+00
 -1       767 0.00000E+00 0.00000E+00 0.00000E+00
 -1       768 0.00000E+00 0.00000E+00 0.00000E+00
 -1       769 0.00000E+00 0.00000E+00 0.00000E+00
 -1       770 0.00000E+00 0.00000E+00 0.00000E+00
 -1       771 0.00000E+00 0.00000E+00 0.00000E+00
 -1       772 0.00000E+00 0.00000E+00 0.00000E+00
 -1       773 0.00000E+00 0.00000E+00 0.00000E+00
 -1       774 0.00000E+00 0.00000E+00 0.00000E+00
 -1       775 0.00000E+00 0.00000E+00 0.00000E+00
 -1       776 0.00000E+00 0.00000E+00 0.00000E+00
 -1       777 0.00000E+00 0.00000E+00 0.00000E+00
 -1       778 0.00000E+00 0.00000E+00 0.00000E+00
 -1       779 0.00000E+00 0.00000E+00 0.00000E+00
 -1       780 0.00000E+00 0.00000E+00 0.00000E+00
 -1       781 0.00000E+00 0.00000E+00 0.00000E+00
 -1       782 0.00000E+00 0.00000E+00 0.00000E+00
 -1       783 0.00000E+00 0.00000E+00 0.00000E+00
 -1       784 0.00000E+00 0.00000E+00 0.00000E+00
 -1       785 0.00000E+00 0.00000E+00 0.00000E+00
 -1       786 0.00000E+00 0.00000E+00 0.00000E+00
 -1       787 0.00000E+00 0.00000E+00 0.00000E+00
 -1       788 0.00000E+00 0.00000E+00 0.00000E+00
 -1       789 0.00000E+00 0.00000E+00 0.00000E+00
 -1       790 0.00000E+00 0.00000E+00 0.00000E+00
 -1       791 0.00000E+00 0.00000E+00 0.00000E+00
 -1       792 0.00000E+00 0.00000E+00 0.00000E+00
 -1       793 0.00000E+00 0.00000E+00 0.00000E+00
 -1       794 0.00000E+00 0.00000E+00 0.00000E+00
 -1       795 0.00000E+00 0.00000E+00 0.00000E+00
 -1       796 0.00000E+00 0.00000E+00 0.00000E+00
 -1       797 0.00000E+00 0.00000E+00 0.00000E+00
 -1       798 0.00000E+00 0.00000E+00 0.00000E+00
 -1       799 0.00000E+00 0.00000E+00 0.00000E+00
 -1       800 0.00000E+00 0.00000E+00 0.00000E+00
 -1       801 0.00000E+00 0.00000E+00 0.00000E+00
 -1       802 0.00000E+00 0.00000E+00 0.00000E+00
 -1       803 0.00000E+00 0.00000E+00 0.00000E+00
 -1       804 0.00000E+00 0.00000E+00 0.00000E+00
 -1       805 0.00000E+00 0.00000E+00 0.00000E+00
 -1       806 0.00000E+00 0.00000E+00 0.00000E+00
 -1       807 0.00000E+00 0.00000E+00 0.00000E+00
 -1       808 0.00000E+00 0.00000E+00 0.00000E+00
 -1       809 0.00000E+00 0.00000E+00 0.00000E+00
 -1       810 0.00000E+00 0.00000E+00 0.00000E+00
 -1       811 0.00000E+00 0.00000E+00 0.00000E+00
 -1       812 0.00000E+00 0.00000E+00 0.00000E+00
 -1       813 0.00000E+00 0.00000E+00 0.00000E+00
 -1       814 0.00000E+00 0.00000E+00 0.00000E+00
 -1       815 0.00000E+00 0.00000E+00 0.00000E+00
 -1       816 0.00000E+00 0.00000E+00 0.00000E+00
 -1       817 0.00000E+00 0.00000E+00 0.00000E+00
 -1       818 0.00000E+00 0.00000E+00 0.00000E+00
 -1       819 0.00000E+00 0.00000E+00 0.00000E+00
 -1       820 0.00000E+00 0.00000E+00 0.00000E+00
 -1       821 0.00000E+00 0.00000E+00 0.00000E+00
 -1       822 0.00000E+00 0.00000E+00 0.00000E+00
 -1       823 0.00000E+00 0.00000E+00 0.00000E+00
 -1       824 0.00000E+00 0.00000E+00 0.00000E+00
 -1       825 0.00000E+00 0.00000E+00 0.00000E+00
 -1       826 0.00000E+00 0.00000E+00 0.00000E+00
 -1       827 0.00000E+00 0.00000E+00 0.00000E+00
 -1       828 0.00000E+00 0.00000E+00 0.00000E+00
 -1       829 0.00000E+00 0.00000E+00 0.00000E+00
 -1       830 0.00000E+00 0.00000E+00 0.00000E+00
 -1       831 0.00000E+00 0.00000E+00 0.00000E+00
 -1       832 0.00000E+00 0.00000E+00 0.00000E+00
 -1       833 0.00000E+00 0.00000E+00 0.00000E+00
 -1       834 0.00000E+00 0.00000E+00 0.00000E+00
 -1       835 0.00000E+00 0.00000E+00 0.00000E+00
 -1       836 0.00000E+00 0.00000E+00 0.00000E+00
 -1       837 0.00000E+00 0.00000E+00 0.00000E+00
 -1       838 0.00000E+00 0.00000E+00 0.00000E+00
 -1       839 0.00000E+00 0.00000E+00 0.00000E+00
 -1       840 0.00000E+00 0.00000E+00 0.00000E+00
 -1       841 0.00000E+00 0.00000E+00 0.00000E+00
 -1       842 0.00000E+00 0.00000E+00 0.00000E+00
 -1       843 0.00000E+00 0.00000E+00 0.00000E+00
 -1       844 0.00000E+00 0.00000E+00 0.00000E+00
 -1       845 0.00000E+00 0.00000E+00 0.00000E+00
 -1       846 0.00000E+00 0.00000E+00 0.00000E+00
 -1       847 0.00000E+00 0.00000E+00 0.00000E+00
 -1       848 0.00000E+00 0.00000E+00 0.00000E+00
 -1       849 0.00000E+00 0.00000E+00 0.00000E+00
 -1       850 0.00000E+00 0.00000E+00 0.00000E+00
 -1       851 0.00000E+00 0.00000E+00 0.00000E+00
 -1       852 0.00000E+00 0.00000E+00 0.00000E+00
 -1       853 0.00000E+00 0.00000E+00 0.00000E+00
 -1       854 0.00000E+00 0.00000E+00 0.00000E+00
 -1       855 0.00000E+00 0.00000E+00 0.00000E+00
 -1       856 0.00000E+00 0.00000E+00 0.00000E+00
 -1       857 0.00000E+00 0.00000E+00 0.00000E+00
 -1       858 0.00000E+00 0.00000E+00 0.00000E+00
 -1       859 0.00000E+00 0.00000E+00 0.00000E+00
 -1       860 0.00000E+00 0.00000E+00 0.00000E+00
 -1       861 0.00000E+00 0.00000E+00 0.00000E+00
 -1       862 0.00000E+00 0.00000E+00 0.00000E+00
 -1       863 0.00000E+00 0.00000E+00 0.00000E+00
 -1       864 0.00000E+00 0.00000E+00 0.00000E+00
 -1       865 0.00000E+00 0.00000E+00 0.00000E+00
 -1       866 0.00000E+00 0.00000E+00 0.00000E+00
 -1       867 0.00000E+00 0.00000E+00 0.00000E+00
 -1       868 0.00000E+00 0.00000E+00 0.00000E+00
 -1       869 0.00000E+00 0.00000E+00 0.00000E+00
 -1       870 0.00000E+00 0.00000E+00 0.00000E+00
 -1       871 0.00000E+00 0.00000E+00 0.00000E+00
 -1       872 0.00000E+00 0.00000E+00 0.00000E+00
 -1       873 0.00000E+00 0.00000E+00 0.00000E+00
 -1       874 0.00000E+00 0.00000E+00 0.00000E+00
 -1       875 0.00000E+00 0.00000E+00 0.00000E+00
 -1       876 0.00000E+00 0.00000E+00 0.00000E+00
 -1       877 0.00000E+00 0.00000E+00 0.00000E+00
 -1       878 0.00000E+00 0.00000E+00 0.00000E+00
 -1       879 0.00000E+00 0.00000E+00 0.00000E+00
 -1       880 0.00000E+00 0.00000E+00 0.00000E+00
 -1       881 0.00000E+00 0.00000E+00 0.00000E+00
 -1       882 0.00000E+00 0.00000E+00 0.00000E+00
 -1       883 0.00000E+00 0.00000E+00 0.00000E+00
 -1       884 0.00000E+00 0.00000E+00 0.00000E+00
 -1       885 0.00000E+00 0.00000E+00 0.00000E+00
 -1       886 0.00000E+00 0.00000E+00 0.00000E+00
 -1       887 0.00000E+00 0.00000E+00 0.00000E+00
 -1       888 0.00000E+00 0.00000E+00 0.00000E+00
 -1       889 0.00000E+00 0.00000E+00 0.00000E+00
 -1       890 0.00000E+00 0.00000E+00 0.00000E+00
 -1       891 0.00000E+00 0.00000E+00 0.00000E+00
 -1       892 0.00000E+00 0.00000E+00 0.00000E+00
 -1       893 0.00000E+00 0.00000E+00 0.00000E+00
 -1       894 0.00000E+00 0.00000E+00 0.00000E+00
 -1       895 0.00000E+00 0.00000E+00 0.00000E+00
 -1       896 0.00000E+00 0.00000E+00 0.00000E+00
 -1       897 0.00000E+00 0.00000E+00 0.00000E+00
 -1       898 0.00000E+00 0.00000E+00 0.00000E+00
 -1       899 0.00000E+00 0.00000E+00 0.00000E+00
 -1       900 0.00000E+00 0.00000E+00 0.00000E+00
 -1       901 0.00000E+00 0.00000E+00 0.00000E+00
 -1       902 0.00000E+00 0.00000E+00 0.00000E+00
 -1       903 0.00000E+00 0.00000E+00 0.00000E+00
 -1       904 0.00000E+00 0.00000E+00 0.00000E+00
 -1       905 0.00000E+00 0.00000E+00 0.00000E+00
 -1       906 0.00000E+00 0.00000E+00 0.00000E+00
 -1       907 0.00000E+00 0.00000E+00 0.00000E+00
 -1       908 0.00000E+00 0.00000E+00 0.00000E+00
 -1       909 0.00000E+00 0.00000E+00 0.00000E+00
 -1       910 0.00000E+00 0.00000E+00 0.00000E+00
 -1       911 0.00000E+00 0.00000E+00 0.00000E+00
 -1       912 0.00000E+00 0.00000E+00 0.00000E+00
 -1       913 0.00000E+00 0.00000E+00 0.00000E+00
 -1       914 0.00000E+00 0.00000E+00 0.00000E+00
 -1       915 0.00000E+00 0.00000E+00 0.00000E+00
 -1       916 0.00000E+00 0.00000E+00 0.00000E+00
 -1       917 0.00000E+00 0.00000E+00 0.00000E+00
 -1       918 0.00000E+00 0.00000E+00 0.00000E+00
 -1       919 0.00000E+00 0.00000E+00 0.00000E+00
 -1       920 0.00000E+00 0.00000E+00 0.00000E+00
 -1       921 0.00000E+00 0.00000E+00 0.00000E+00
 -1       922 0.00000E+00 0.00000E+00 0.00000E+00
 -1       923 0.00000E+00 0.00000E+00 0.00000E+00
 -1       924 0.00000E+00 0.00000E+00 0.00000E+00
 -1       925 0.00000E+00 0.00000E+00 0.00000E+00
 -1       926 0.00000E+00 0.00000E+00 0.00000E+00
 -1       927 0.00000E+00 0.00000E+00 0.00000E+00
 -1       928 0.00000E+00 0.00000E+00 0.00000E+00
 -1       929 0.00000E+00 0.00000E+00 0.00000E+00
 -1       930 0.00000E+00 0.00000E+00 0.00000E+00
 -1       931 0.00000E+00 0.00000E+00 0.00000E+00
 -1       932 0.00000E+00 0.00000E+00 0.00000E+00
 -1       933 0.00000E+00 0.00000E+00 0.00000E+00
 -1       934 0.00000E+00 0.00000E+00 0.00000E+00
 -1       935 0.00000E+00 0.00000E+00 0.00000E+00
 -1       936 0.00000E+00 0.00000E+00 0.00000E+00
 -1       937 0.00000E+00 0.00000E+00 0.00000E+00
 -1       938 0.00000E+00 0.00000E+00 0.00000E+00
 -1       939 0.00000E+00 0.00000E+00 0.00000E+00
 -1       940 0.00000E+00 0.00000E+00 0.00000E+00
 -1       941 0.00000E+00 0.00000E+00 0.00000E+00
 -1       942 0.00000E+00 0.00000E+00 0.00000E+00
 -1       943 0.00000E+00 0.00000E+00 0.00000E+00
 -1       944 0.00000E+00 0.00000E+00 0.00000E+00
 -1       945 0.00000E+00 0.00000E+00 0.00000E+00
 -1       946 0.00000E+00 0.00000E+00 0.00000E+00
 -1       947 0.00000E+00 0.00000E+00 0.00000E+00
 -1       948 0.00000E+00 0.00000E+00 0.00000E+00
 -1       949 0.00000E+00 0.00000E+00 0.00000E+00
 -1       950 0.00000E+00 0.00000E+00 0.00000E+00
 -1       951 0.00000E+00 0.00000E+00 0.00000E+00
 -1       952 0.00000E+00 0.00000E+00 0.00000E+00
 -1       953 0.00000E+00 0.00000E+00 0.00000E+00
 -1       954 0.00000E+00 0.00000E+00 0.00000E+00
 -1       955 0.00000E+00 0.00000E+00 0.00000E+00
 -1       956 0.00000E+00 0.00000E+00 0.00000E+00
 -1       957 0.00000E+00 0.00000E+00 0.00000E+00
 -1       958 0.00000E+00 0.00000E+00 0.00000E+00
 -1       959 0.00000E+00 0.00000E+00 0.00000E+00
 -1       960 0.00000E+00 0.00000E+00 0.00000E+00
 -1       961 0.00000E+00 0.00000E+00 0.00000E+00
 -1       962 0.00000E+00 0.00000E+00 0.00000E+00
 -3
 9999
