    1C
    1UUSER                                                              
    1UDATE              04.december.2017                                
    1UTIME              08:33:27                                        
    1UHOST                                                              
    1UPGM               CalculiX                                        
    1UVERSION           Version 2.13                             
    1UCOMPILETIME       So 8. Okt 22:10:07 CEST 2017                    
    1UDIR                                                               
    1UDBN                                                               
    1UMAT    1CONCRETE                                                  
    2C                           475                                     1
 -1         1 0.00000E+00 0.00000E+00 0.00000E+00
 -1         2 2.43840E+00 0.00000E+00 0.00000E+00
 -1         3 6.70560E+00 3.65760E+00 0.00000E+00
 -1         4 3.32232E+01 4.12047E+00 0.00000E+00
 -1         5 3.50520E+01 4.15239E+00 0.00000E+00
 -1         6 3.50520E+01 8.41959E+00 0.00000E+00
 -1         8 6.70560E+00 2.22504E+01 0.00000E+00
 -1        10 4.26720E+00 2.98704E+01 0.00000E+00
 -1        11 6.09600E-01 3.35280E+01 0.00000E+00
 -1        12 0.00000E+00 3.35280E+01 0.00000E+00
 -1        13 6.09600E-01 0.00000E+00 0.00000E+00
 -1        14 1.21920E+00 0.00000E+00 0.00000E+00
 -1        15 1.82880E+00 0.00000E+00 0.00000E+00
 -1        16 3.04800E-01 0.00000E+00 0.00000E+00
 -1        17 9.14400E-01 0.00000E+00 0.00000E+00
 -1        18 1.52400E+00 0.00000E+00 0.00000E+00
 -1        19 2.13360E+00 0.00000E+00 0.00000E+00
 -1        20 3.50520E+00 9.14400E-01 0.00000E+00
 -1        21 4.57200E+00 1.82880E+00 0.00000E+00
 -1        22 5.63880E+00 2.74320E+00 0.00000E+00
 -1        23 2.97180E+00 4.57200E-01 0.00000E+00
 -1        24 4.03860E+00 1.37160E+00 0.00000E+00
 -1        25 5.10540E+00 2.28600E+00 0.00000E+00
 -1        26 6.17220E+00 3.20040E+00 0.00000E+00
 -1        27 1.00203E+01 3.71546E+00 0.00000E+00
 -1        28 1.33350E+01 3.77332E+00 0.00000E+00
 -1        29 1.66497E+01 3.83118E+00 0.00000E+00
 -1        30 1.99644E+01 3.88903E+00 0.00000E+00
 -1        31 2.32791E+01 3.94689E+00 0.00000E+00
 -1        32 2.65938E+01 4.00475E+00 0.00000E+00
 -1        33 2.99085E+01 4.06261E+00 0.00000E+00
 -1        34 8.36295E+00 3.68653E+00 0.00000E+00
 -1        35 1.16777E+01 3.74439E+00 0.00000E+00
 -1        36 1.49923E+01 3.80225E+00 0.00000E+00
 -1        37 1.83071E+01 3.86010E+00 0.00000E+00
 -1        38 2.16217E+01 3.91796E+00 0.00000E+00
 -1        39 2.49364E+01 3.97582E+00 0.00000E+00
 -1        40 2.82512E+01 4.03368E+00 0.00000E+00
 -1        41 3.15658E+01 4.09154E+00 0.00000E+00
 -1        42 3.36804E+01 4.12845E+00 0.00000E+00
 -1        43 3.41376E+01 4.13643E+00 0.00000E+00
 -1        44 3.45948E+01 4.14441E+00 0.00000E+00
 -1        45 3.34518E+01 4.12446E+00 0.00000E+00
 -1        46 3.39090E+01 4.13244E+00 0.00000E+00
 -1        47 3.43662E+01 4.14042E+00 0.00000E+00
 -1        48 3.48234E+01 4.14840E+00 0.00000E+00
 -1        49 3.50520E+01 5.21919E+00 0.00000E+00
 -1        50 3.50520E+01 6.28599E+00 0.00000E+00
 -1        51 3.50520E+01 7.35279E+00 0.00000E+00
 -1        52 3.50520E+01 4.68579E+00 0.00000E+00
 -1        53 3.50520E+01 5.75259E+00 0.00000E+00
 -1        54 3.50520E+01 6.81939E+00 0.00000E+00
 -1        55 3.50520E+01 7.88619E+00 0.00000E+00
 -1        56 3.24397E+01 8.93301E+00 0.00000E+00
 -1        57 2.98548E+01 9.57049E+00 0.00000E+00
 -1        58 2.73033E+01 1.03306E+01 0.00000E+00
 -1        59 2.47909E+01 1.12115E+01 0.00000E+00
 -1        60 2.23235E+01 1.22113E+01 0.00000E+00
 -1        61 1.99065E+01 1.33277E+01 0.00000E+00
 -1        62 1.75456E+01 1.45582E+01 0.00000E+00
 -1        63 1.52460E+01 1.58999E+01 0.00000E+00
 -1        64 1.30132E+01 1.73498E+01 0.00000E+00
 -1        65 1.08520E+01 1.89045E+01 0.00000E+00
 -1        66 8.76743E+00 2.05606E+01 0.00000E+00
 -1        67 3.37428E+01 8.66071E+00 0.00000E+00
 -1        68 3.11434E+01 9.23633E+00 0.00000E+00
 -1        69 2.85745E+01 9.93531E+00 0.00000E+00
 -1        70 2.60418E+01 1.07561E+01 0.00000E+00
 -1        71 2.35512E+01 1.16967E+01 0.00000E+00
 -1        72 2.11083E+01 1.27551E+01 0.00000E+00
 -1        73 1.87187E+01 1.39289E+01 0.00000E+00
 -1        74 1.63878E+01 1.52153E+01 0.00000E+00
 -1        75 1.41209E+01 1.66115E+01 0.00000E+00
 -1        76 1.19233E+01 1.81142E+01 0.00000E+00
 -1        77 9.79982E+00 1.97201E+01 0.00000E+00
 -1        78 7.75539E+00 2.14255E+01 0.00000E+00
 -1        79 5.38402E+00 2.38623E+01 0.00000E+00
 -1        80 4.49953E+00 2.57497E+01 0.00000E+00
 -1        81 4.10651E+00 2.77967E+01 0.00000E+00
 -1        82 5.99467E+00 2.30152E+01 0.00000E+00
 -1        83 4.88306E+00 2.47785E+01 0.00000E+00
 -1        84 4.23934E+00 2.67610E+01 0.00000E+00
 -1        85 4.10307E+00 2.88409E+01 0.00000E+00
 -1        86 3.35280E+00 3.07848E+01 0.00000E+00
 -1        87 2.43840E+00 3.16992E+01 0.00000E+00
 -1        88 1.52400E+00 3.26136E+01 0.00000E+00
 -1        89 3.81000E+00 3.03276E+01 0.00000E+00
 -1        90 2.89560E+00 3.12420E+01 0.00000E+00
 -1        91 1.98120E+00 3.21564E+01 0.00000E+00
 -1        92 1.06680E+00 3.30708E+01 0.00000E+00
 -1        93 4.57200E-01 3.35280E+01 0.00000E+00
 -1        94 3.04800E-01 3.35280E+01 0.00000E+00
 -1        95 1.52400E-01 3.35280E+01 0.00000E+00
 -1        96 5.33400E-01 3.35280E+01 0.00000E+00
 -1        97 3.81000E-01 3.35280E+01 0.00000E+00
 -1        98 2.28600E-01 3.35280E+01 0.00000E+00
 -1        99 7.62000E-02 3.35280E+01 0.00000E+00
 -1       100 0.00000E+00 3.07340E+01 0.00000E+00
 -1       101 0.00000E+00 2.79400E+01 0.00000E+00
 -1       102 0.00000E+00 2.51460E+01 0.00000E+00
 -1       103 0.00000E+00 2.23520E+01 0.00000E+00
 -1       104 0.00000E+00 1.95580E+01 0.00000E+00
 -1       105 0.00000E+00 1.67640E+01 0.00000E+00
 -1       106 0.00000E+00 1.39700E+01 0.00000E+00
 -1       107 0.00000E+00 1.11760E+01 0.00000E+00
 -1       108 0.00000E+00 8.38200E+00 0.00000E+00
 -1       109 0.00000E+00 5.58800E+00 0.00000E+00
 -1       110 0.00000E+00 2.79400E+00 0.00000E+00
 -1       111 0.00000E+00 3.21310E+01 0.00000E+00
 -1       112 0.00000E+00 2.93370E+01 0.00000E+00
 -1       113 0.00000E+00 2.65430E+01 0.00000E+00
 -1       114 0.00000E+00 2.37490E+01 0.00000E+00
 -1       115 0.00000E+00 2.09550E+01 0.00000E+00
 -1       116 0.00000E+00 1.81610E+01 0.00000E+00
 -1       117 0.00000E+00 1.53670E+01 0.00000E+00
 -1       118 0.00000E+00 1.25730E+01 0.00000E+00
 -1       119 0.00000E+00 9.77900E+00 0.00000E+00
 -1       120 0.00000E+00 6.98500E+00 0.00000E+00
 -1       121 0.00000E+00 4.19100E+00 0.00000E+00
 -1       122 0.00000E+00 1.39700E+00 0.00000E+00
 -1       123 9.20851E-01 3.14766E+01 0.00000E+00
 -1       124 8.54249E+00 1.12496E+01 0.00000E+00
 -1       125 1.99847E+00 2.14671E+00 0.00000E+00
 -1       126 1.07559E+00 3.21983E+01 0.00000E+00
 -1       127 5.17996E+00 8.11036E+00 0.00000E+00
 -1       128 3.22193E+01 5.78612E+00 0.00000E+00
 -1       129 2.98331E+01 6.67502E+00 0.00000E+00
 -1       130 6.16198E+00 1.64180E+01 0.00000E+00
 -1       131 1.50254E+01 9.54948E+00 0.00000E+00
 -1       132 9.29388E+00 8.82236E+00 0.00000E+00
 -1       133 3.97860E+00 4.42637E+00 0.00000E+00
 -1       134 3.25486E+01 7.07442E+00 0.00000E+00
 -1       135 4.58152E+00 1.18659E+01 0.00000E+00
 -1       136 4.56063E+00 2.03840E+01 0.00000E+00
 -1       137 1.12199E+01 1.32671E+01 0.00000E+00
 -1       138 3.37425E+01 5.30566E+00 0.00000E+00
 -1       139 1.99396E+01 7.82786E+00 0.00000E+00
 -1       140 9.24085E+00 6.79318E+00 0.00000E+00
 -1       141 1.86774E+00 2.90373E+01 0.00000E+00
 -1       142 6.44357E+00 5.50357E+00 0.00000E+00
 -1       143 4.60426E-01 2.97083E+01 0.00000E+00
 -1       144 4.60426E-01 3.25023E+01 0.00000E+00
 -1       145 9.33869E-01 2.84887E+01 0.00000E+00
 -1       146 1.39429E+00 3.02570E+01 0.00000E+00
 -1       147 2.56924E+01 7.60814E+00 0.00000E+00
 -1       148 2.82135E+01 5.33989E+00 0.00000E+00
 -1       149 2.98440E+01 8.12276E+00 0.00000E+00
 -1       150 2.77584E+01 7.83523E+00 0.00000E+00
 -1       151 3.08099E+00 1.65910E+01 0.00000E+00
 -1       152 2.29076E+00 1.15209E+01 0.00000E+00
 -1       153 5.37175E+00 1.41419E+01 0.00000E+00
 -1       154 2.68588E+00 1.40560E+01 0.00000E+00
 -1       155 2.24977E+00 2.40508E+01 0.00000E+00
 -1       156 2.28031E+00 2.13680E+01 0.00000E+00
 -1       157 5.63311E+00 2.13172E+01 0.00000E+00
 -1       158 3.83217E+00 2.26151E+01 0.00000E+00
 -1       159 5.36130E+00 1.84010E+01 0.00000E+00
 -1       160 8.50698E+00 1.76612E+01 0.00000E+00
 -1       161 7.06437E+00 1.94808E+01 0.00000E+00
 -1       162 1.74825E+01 8.68867E+00 0.00000E+00
 -1       163 1.41802E+01 6.66140E+00 0.00000E+00
 -1       164 1.99520E+01 5.85845E+00 0.00000E+00
 -1       165 1.70661E+01 6.25992E+00 0.00000E+00
 -1       166 8.69092E+00 1.48425E+01 0.00000E+00
 -1       167 6.56201E+00 1.15578E+01 0.00000E+00
 -1       168 9.88117E+00 1.22584E+01 0.00000E+00
 -1       169 7.62646E+00 1.32001E+01 0.00000E+00
 -1       170 3.18364E+00 2.73935E+01 0.00000E+00
 -1       171 1.59182E+00 2.62697E+01 0.00000E+00
 -1       172 1.32330E+01 1.45835E+01 0.00000E+00
 -1       173 1.31226E+01 1.14083E+01 0.00000E+00
 -1       174 1.74659E+01 1.14386E+01 0.00000E+00
 -1       175 1.53341E+01 1.29832E+01 0.00000E+00
 -1       176 8.91818E+00 1.00360E+01 0.00000E+00
 -1       177 4.88074E+00 9.98813E+00 0.00000E+00
 -1       178 7.23692E+00 8.46636E+00 0.00000E+00
 -1       179 6.89946E+00 1.00121E+01 0.00000E+00
 -1       180 1.21596E+01 9.18592E+00 0.00000E+00
 -1       181 1.10204E+01 1.07221E+01 0.00000E+00
 -1       182 2.23652E+01 9.51970E+00 0.00000E+00
 -1       183 2.28222E+01 6.73329E+00 0.00000E+00
 -1       184 2.58998E+00 6.84918E+00 0.00000E+00
 -1       185 2.44037E+00 9.18506E+00 0.00000E+00
 -1       186 3.39401E+01 4.72104E+00 0.00000E+00
 -1       187 3.29809E+01 5.54589E+00 0.00000E+00
 -1       188 3.27212E+01 4.95329E+00 0.00000E+00
 -1       189 3.33307E+01 4.83717E+00 0.00000E+00
 -1       190 1.08520E+01 1.60961E+01 0.00000E+00
 -1       191 1.99030E+01 1.04500E+01 0.00000E+00
 -1       192 2.68065E+00 1.89795E+01 0.00000E+00
 -1       193 9.26736E+00 7.80777E+00 0.00000E+00
 -1       194 5.81176E+00 6.80697E+00 0.00000E+00
 -1       195 7.84221E+00 6.14838E+00 0.00000E+00
 -1       196 7.53956E+00 7.30737E+00 0.00000E+00
 -1       197 1.12879E+01 5.28325E+00 0.00000E+00
 -1       198 1.17238E+01 7.23458E+00 0.00000E+00
 -1       199 1.98930E+00 5.00719E+00 0.00000E+00
 -1       200 5.21109E+00 4.96497E+00 0.00000E+00
 -1       201 3.90053E+00 5.90708E+00 0.00000E+00
 -1       202 2.15307E+00 3.03683E+01 0.00000E+00
 -1       203 3.12979E+00 2.90825E+01 0.00000E+00
 -1       204 4.27530E+00 3.12759E+00 0.00000E+00
 -1       205 9.99234E-01 3.86735E+00 0.00000E+00
 -1       206 3.28523E+00 1.98775E+00 0.00000E+00
 -1       207 2.63727E+00 3.49747E+00 0.00000E+00
 -1       208 9.98221E-01 3.18375E+01 0.00000E+00
 -1       209 1.75699E+00 3.19488E+01 0.00000E+00
 -1       210 1.57564E+00 3.11029E+01 0.00000E+00
 -1       211 6.57458E+00 4.58059E+00 0.00000E+00
 -1       212 5.42494E+00 3.85409E+00 0.00000E+00
 -1       213 3.23839E+01 6.43027E+00 0.00000E+00
 -1       214 3.12017E+01 8.32246E+00 0.00000E+00
 -1       215 3.10262E+01 6.23057E+00 0.00000E+00
 -1       216 3.11139E+01 7.27651E+00 0.00000E+00
 -1       217 3.43973E+01 5.79582E+00 0.00000E+00
 -1       218 3.38003E+01 6.68020E+00 0.00000E+00
 -1       219 3.33906E+01 6.11304E+00 0.00000E+00
 -1       220 8.93125E+00 4.93192E+00 0.00000E+00
 -1       221 3.44960E+01 4.97012E+00 0.00000E+00
 -1       222 3.31200E+01 7.80661E+00 0.00000E+00
 -1       223 1.60883E+00 1.07335E+00 0.00000E+00
 -1       224 8.04417E-01 1.93368E+00 0.00000E+00
 -1       225 2.55702E+00 9.93877E-01 0.00000E+00
 -1       226 3.04674E+01 5.14659E+00 0.00000E+00
 -1       227 6.90195E-01 3.28632E+01 0.00000E+00
 -1       228 1.10710E+00 3.27384E+01 0.00000E+00
 -1       229 5.75310E-01 3.26827E+01 0.00000E+00
 -1       230 3.06950E-01 3.09815E+01 0.00000E+00
 -1       231 9.29530E-01 2.94846E+01 0.00000E+00
 -1       232 2.75308E+01 9.08290E+00 0.00000E+00
 -1       233 2.88012E+01 7.97899E+00 0.00000E+00
 -1       234 2.98494E+01 8.84663E+00 0.00000E+00
 -1       235 2.52416E+01 9.40983E+00 0.00000E+00
 -1       236 2.67254E+01 7.72168E+00 0.00000E+00
 -1       237 2.61431E+01 5.80644E+00 0.00000E+00
 -1       238 2.74036E+01 4.67232E+00 0.00000E+00
 -1       239 2.79859E+01 6.58756E+00 0.00000E+00
 -1       240 2.90233E+01 6.00745E+00 0.00000E+00
 -1       241 2.98385E+01 7.39889E+00 0.00000E+00
 -1       242 4.62149E+00 1.65045E+01 0.00000E+00
 -1       243 2.88343E+00 1.53235E+01 0.00000E+00
 -1       244 4.02881E+00 1.40989E+01 0.00000E+00
 -1       245 5.76687E+00 1.52799E+01 0.00000E+00
 -1       246 1.54050E+00 1.66775E+01 0.00000E+00
 -1       247 1.34294E+00 1.40130E+01 0.00000E+00
 -1       248 1.14538E+00 1.13485E+01 0.00000E+00
 -1       249 2.48832E+00 1.27885E+01 0.00000E+00
 -1       250 3.43614E+00 1.16934E+01 0.00000E+00
 -1       251 4.97664E+00 1.30039E+01 0.00000E+00
 -1       252 4.60809E+00 2.32387E+01 0.00000E+00
 -1       253 4.73264E+00 2.19661E+01 0.00000E+00
 -1       254 6.16936E+00 2.17838E+01 0.00000E+00
 -1       255 3.37465E+00 2.49003E+01 0.00000E+00
 -1       256 3.04097E+00 2.33330E+01 0.00000E+00
 -1       257 1.12488E+00 2.32014E+01 0.00000E+00
 -1       258 1.14016E+00 2.18600E+01 0.00000E+00
 -1       259 3.05624E+00 2.19915E+01 0.00000E+00
 -1       260 3.42047E+00 2.08760E+01 0.00000E+00
 -1       261 5.09687E+00 2.08506E+01 0.00000E+00
 -1       262 7.91590E+00 2.00207E+01 0.00000E+00
 -1       263 7.78567E+00 1.85710E+01 0.00000E+00
 -1       264 9.67947E+00 1.82829E+01 0.00000E+00
 -1       265 6.34874E+00 2.03990E+01 0.00000E+00
 -1       266 4.96096E+00 1.93925E+01 0.00000E+00
 -1       267 6.21283E+00 1.89409E+01 0.00000E+00
 -1       268 5.76164E+00 1.74095E+01 0.00000E+00
 -1       269 7.33448E+00 1.70396E+01 0.00000E+00
 -1       270 1.87110E+01 8.25827E+00 0.00000E+00
 -1       271 1.72743E+01 7.47430E+00 0.00000E+00
 -1       272 1.85090E+01 6.05919E+00 0.00000E+00
 -1       273 1.99458E+01 6.84315E+00 0.00000E+00
 -1       274 1.62539E+01 9.11908E+00 0.00000E+00
 -1       275 1.46028E+01 8.10544E+00 0.00000E+00
 -1       276 1.56231E+01 6.46066E+00 0.00000E+00
 -1       277 1.37576E+01 5.21736E+00 0.00000E+00
 -1       278 1.68579E+01 5.04555E+00 0.00000E+00
 -1       279 1.99582E+01 4.87374E+00 0.00000E+00
 -1       280 9.95538E+00 1.40548E+01 0.00000E+00
 -1       281 8.15869E+00 1.40213E+01 0.00000E+00
 -1       282 8.75381E+00 1.27293E+01 0.00000E+00
 -1       283 1.05505E+01 1.27627E+01 0.00000E+00
 -1       284 7.42645E+00 1.56302E+01 0.00000E+00
 -1       285 6.49911E+00 1.36710E+01 0.00000E+00
 -1       286 5.57176E+00 1.17118E+01 0.00000E+00
 -1       287 7.09423E+00 1.23790E+01 0.00000E+00
 -1       288 7.55225E+00 1.14037E+01 0.00000E+00
 -1       289 9.21183E+00 1.17540E+01 0.00000E+00
 -1       290 1.92079E+00 2.51603E+01 0.00000E+00
 -1       291 7.95909E-01 2.57079E+01 0.00000E+00
 -1       292 3.84158E+00 2.65716E+01 0.00000E+00
 -1       293 2.38773E+00 2.68316E+01 0.00000E+00
 -1       294 2.52569E+00 2.82154E+01 0.00000E+00
 -1       295 1.40080E+00 2.87630E+01 0.00000E+00
 -1       296 1.26284E+00 2.73792E+01 0.00000E+00
 -1       297 4.66935E-01 2.82143E+01 0.00000E+00
 -1       298 1.64398E+01 1.37707E+01 0.00000E+00
 -1       299 1.64000E+01 1.22109E+01 0.00000E+00
 -1       300 1.86862E+01 1.23832E+01 0.00000E+00
 -1       301 1.42395E+01 1.52417E+01 0.00000E+00
 -1       302 1.42835E+01 1.37834E+01 0.00000E+00
 -1       303 1.22264E+01 1.39253E+01 0.00000E+00
 -1       304 1.21712E+01 1.23377E+01 0.00000E+00
 -1       305 1.42283E+01 1.21958E+01 0.00000E+00
 -1       306 1.40740E+01 1.04789E+01 0.00000E+00
 -1       307 1.62456E+01 1.04940E+01 0.00000E+00
 -1       308 9.10603E+00 9.42917E+00 0.00000E+00
 -1       309 7.90882E+00 1.00240E+01 0.00000E+00
 -1       310 7.06819E+00 9.23921E+00 0.00000E+00
 -1       311 8.26540E+00 8.64436E+00 0.00000E+00
 -1       312 8.73034E+00 1.06428E+01 0.00000E+00
 -1       313 6.73073E+00 1.07849E+01 0.00000E+00
 -1       314 4.73113E+00 1.09270E+01 0.00000E+00
 -1       315 5.89010E+00 1.00001E+01 0.00000E+00
 -1       316 5.03035E+00 9.04925E+00 0.00000E+00
 -1       317 6.20844E+00 8.28836E+00 0.00000E+00
 -1       318 9.96929E+00 1.03791E+01 0.00000E+00
 -1       319 1.04508E+01 1.14903E+01 0.00000E+00
 -1       320 1.07267E+01 9.00414E+00 0.00000E+00
 -1       321 1.15900E+01 9.95403E+00 0.00000E+00
 -1       322 1.35925E+01 9.36770E+00 0.00000E+00
 -1       323 1.20715E+01 1.10652E+01 0.00000E+00
 -1       324 2.35781E+01 1.03656E+01 0.00000E+00
 -1       325 2.25937E+01 8.12649E+00 0.00000E+00
 -1       326 2.42573E+01 7.17072E+00 0.00000E+00
 -1       327 2.11524E+01 8.67378E+00 0.00000E+00
 -1       328 2.13871E+01 6.29587E+00 0.00000E+00
 -1       329 2.30506E+01 5.34009E+00 0.00000E+00
 -1       330 1.29499E+00 6.21859E+00 0.00000E+00
 -1       331 2.51518E+00 8.01712E+00 0.00000E+00
 -1       332 1.22019E+00 8.78353E+00 0.00000E+00
 -1       333 3.88497E+00 7.47977E+00 0.00000E+00
 -1       334 3.66056E+00 9.58660E+00 0.00000E+00
 -1       335 2.36557E+00 1.03530E+01 0.00000E+00
 -1       336 3.35055E+01 4.48281E+00 0.00000E+00
 -1       337 3.30259E+01 4.89523E+00 0.00000E+00
 -1       338 3.29722E+01 4.53688E+00 0.00000E+00
 -1       339 3.40388E+01 4.42873E+00 0.00000E+00
 -1       340 3.36354E+01 4.77910E+00 0.00000E+00
 -1       341 3.38413E+01 5.01335E+00 0.00000E+00
 -1       342 3.33617E+01 5.42577E+00 0.00000E+00
 -1       343 3.31558E+01 5.19153E+00 0.00000E+00
 -1       344 3.26001E+01 5.66600E+00 0.00000E+00
 -1       345 3.24703E+01 5.36970E+00 0.00000E+00
 -1       346 9.77147E+00 1.54693E+01 0.00000E+00
 -1       347 9.67950E+00 1.68787E+01 0.00000E+00
 -1       348 1.20425E+01 1.53398E+01 0.00000E+00
 -1       349 1.19326E+01 1.67230E+01 0.00000E+00
 -1       350 1.86927E+01 9.56934E+00 0.00000E+00
 -1       351 1.86844E+01 1.09443E+01 0.00000E+00
 -1       352 2.11341E+01 9.98485E+00 0.00000E+00
 -1       353 2.11132E+01 1.13307E+01 0.00000E+00
 -1       354 4.02098E+00 1.86902E+01 0.00000E+00
 -1       355 2.88082E+00 1.77852E+01 0.00000E+00
 -1       356 2.48048E+00 2.01737E+01 0.00000E+00
 -1       357 1.34033E+00 1.92687E+01 0.00000E+00
 -1       358 9.25411E+00 7.30047E+00 0.00000E+00
 -1       359 8.40346E+00 7.55757E+00 0.00000E+00
 -1       360 7.69089E+00 6.72787E+00 0.00000E+00
 -1       361 8.54153E+00 6.47078E+00 0.00000E+00
 -1       362 9.28062E+00 8.31506E+00 0.00000E+00
 -1       363 7.38824E+00 7.88686E+00 0.00000E+00
 -1       364 5.49586E+00 7.45867E+00 0.00000E+00
 -1       365 6.67566E+00 7.05717E+00 0.00000E+00
 -1       366 6.12767E+00 6.15527E+00 0.00000E+00
 -1       367 7.14289E+00 5.82597E+00 0.00000E+00
 -1       368 1.19417E+01 8.21025E+00 0.00000E+00
 -1       369 1.29520E+01 6.94799E+00 0.00000E+00
 -1       370 1.04956E+01 7.52117E+00 0.00000E+00
 -1       371 1.02644E+01 6.03821E+00 0.00000E+00
 -1       372 1.15058E+01 6.25891E+00 0.00000E+00
 -1       373 1.23115E+01 4.52828E+00 0.00000E+00
 -1       374 9.94651E-01 5.29759E+00 0.00000E+00
 -1       375 2.94492E+00 5.45713E+00 0.00000E+00
 -1       376 3.24526E+00 6.37813E+00 0.00000E+00
 -1       377 2.98395E+00 4.71678E+00 0.00000E+00
 -1       378 4.59484E+00 4.69567E+00 0.00000E+00
 -1       379 4.55581E+00 5.43603E+00 0.00000E+00
 -1       380 5.82733E+00 5.23427E+00 0.00000E+00
 -1       381 4.85615E+00 6.35702E+00 0.00000E+00
 -1       382 3.61815E+00 2.84396E+01 0.00000E+00
 -1       383 3.15671E+00 2.82380E+01 0.00000E+00
 -1       384 3.24129E+00 2.99336E+01 0.00000E+00
 -1       385 2.29573E+00 3.10337E+01 0.00000E+00
 -1       386 2.64143E+00 2.97254E+01 0.00000E+00
 -1       387 2.01040E+00 2.97028E+01 0.00000E+00
 -1       388 4.42365E+00 2.47819E+00 0.00000E+00
 -1       389 3.45628E+00 3.31253E+00 0.00000E+00
 -1       390 2.96125E+00 2.74261E+00 0.00000E+00
 -1       391 3.92862E+00 1.90828E+00 0.00000E+00
 -1       392 4.12695E+00 3.77698E+00 0.00000E+00
 -1       393 2.31329E+00 4.25233E+00 0.00000E+00
 -1       394 4.99617E-01 4.72768E+00 0.00000E+00
 -1       395 1.81825E+00 3.68241E+00 0.00000E+00
 -1       396 1.49885E+00 3.00703E+00 0.00000E+00
 -1       397 2.64185E+00 2.06723E+00 0.00000E+00
 -1       398 1.03691E+00 3.20179E+01 0.00000E+00
 -1       399 1.28693E+00 3.14702E+01 0.00000E+00
 -1       400 1.66632E+00 3.15258E+01 0.00000E+00
 -1       401 1.41629E+00 3.20735E+01 0.00000E+00
 -1       402 9.59536E-01 3.16570E+01 0.00000E+00
 -1       403 1.15757E+00 3.08668E+01 0.00000E+00
 -1       404 1.48497E+00 3.06799E+01 0.00000E+00
 -1       405 1.63102E+00 2.96471E+01 0.00000E+00
 -1       406 1.86436E+00 3.07356E+01 0.00000E+00
 -1       407 2.09770E+00 3.18240E+01 0.00000E+00
 -1       408 5.53187E+00 3.29864E+00 0.00000E+00
 -1       409 4.85012E+00 3.49084E+00 0.00000E+00
 -1       410 6.64009E+00 4.11909E+00 0.00000E+00
 -1       411 5.99976E+00 4.21734E+00 0.00000E+00
 -1       412 6.50908E+00 5.04208E+00 0.00000E+00
 -1       413 5.31801E+00 4.40953E+00 0.00000E+00
 -1       414 3.23016E+01 6.10819E+00 0.00000E+00
 -1       415 3.17489E+01 6.85339E+00 0.00000E+00
 -1       416 3.10701E+01 6.75354E+00 0.00000E+00
 -1       417 3.16227E+01 6.00834E+00 0.00000E+00
 -1       418 3.24662E+01 6.75234E+00 0.00000E+00
 -1       419 3.18751E+01 7.69843E+00 0.00000E+00
 -1       420 3.11578E+01 7.79948E+00 0.00000E+00
 -1       421 3.05282E+01 8.94647E+00 0.00000E+00
 -1       422 3.04789E+01 7.69964E+00 0.00000E+00
 -1       423 3.04297E+01 6.45280E+00 0.00000E+00
 -1       424 3.28873E+01 6.27166E+00 0.00000E+00
 -1       425 3.35954E+01 6.39662E+00 0.00000E+00
 -1       426 3.31744E+01 6.87731E+00 0.00000E+00
 -1       427 3.31857E+01 5.82946E+00 0.00000E+00
 -1       428 3.40699E+01 5.55074E+00 0.00000E+00
 -1       429 3.38939E+01 5.95443E+00 0.00000E+00
 -1       430 3.47246E+01 6.04090E+00 0.00000E+00
 -1       431 3.44261E+01 6.48310E+00 0.00000E+00
 -1       432 7.75292E+00 4.75625E+00 0.00000E+00
 -1       433 8.38673E+00 5.54015E+00 0.00000E+00
 -1       434 9.47578E+00 4.32369E+00 0.00000E+00
 -1       435 1.01096E+01 5.10758E+00 0.00000E+00
 -1       436 3.45454E+01 4.55726E+00 0.00000E+00
 -1       437 3.42180E+01 4.84558E+00 0.00000E+00
 -1       438 3.47740E+01 5.09465E+00 0.00000E+00
 -1       439 3.44466E+01 5.38297E+00 0.00000E+00
 -1       440 3.40860E+01 7.57970E+00 0.00000E+00
 -1       441 3.34601E+01 7.24340E+00 0.00000E+00
 -1       442 3.27798E+01 8.36981E+00 0.00000E+00
 -1       443 3.21608E+01 8.06453E+00 0.00000E+00
 -1       444 4.02209E-01 2.36384E+00 0.00000E+00
 -1       445 9.01826E-01 2.90052E+00 0.00000E+00
 -1       446 7.07009E-01 9.66838E-01 0.00000E+00
 -1       447 1.41402E+00 5.36677E-01 0.00000E+00
 -1       448 1.20663E+00 1.50352E+00 0.00000E+00
 -1       449 1.80365E+00 1.61003E+00 0.00000E+00
 -1       450 2.92113E+00 1.49082E+00 0.00000E+00
 -1       451 3.03111E+00 9.54138E-01 0.00000E+00
 -1       452 2.08293E+00 1.03361E+00 0.00000E+00
 -1       453 2.19291E+00 4.96938E-01 0.00000E+00
 -1       454 3.01879E+01 4.60460E+00 0.00000E+00
 -1       455 2.93404E+01 5.24324E+00 0.00000E+00
 -1       456 3.15943E+01 5.04994E+00 0.00000E+00
 -1       457 3.07468E+01 5.68858E+00 0.00000E+00
 -1       458 1.31555E+00 3.26760E+01 0.00000E+00
 -1       459 1.43205E+00 3.23436E+01 0.00000E+00
 -1       460 7.82149E-01 3.31332E+01 0.00000E+00
 -1       461 4.97498E-01 3.31956E+01 0.00000E+00
 -1       462 8.98647E-01 3.28008E+01 0.00000E+00
 -1       463 8.82893E-01 3.25307E+01 0.00000E+00
 -1       464 7.86766E-01 3.22601E+01 0.00000E+00
 -1       465 5.17868E-01 3.25925E+01 0.00000E+00
 -1       466 6.90638E-01 3.19894E+01 0.00000E+00
 -1       467 6.32753E-01 3.27729E+01 0.00000E+00
 -1       468 3.63855E-01 3.31054E+01 0.00000E+00
 -1       469 2.30213E-01 3.30151E+01 0.00000E+00
 -1       470 2.30213E-01 2.88241E+01 0.00000E+00
 -1       471 3.83688E-01 3.03449E+01 0.00000E+00
 -1       472 1.53475E-01 3.08578E+01 0.00000E+00
 -1       473 6.90638E-01 3.05924E+01 0.00000E+00
 -1       474 3.83688E-01 3.17419E+01 0.00000E+00
 -1       475 6.94978E-01 2.95965E+01 0.00000E+00
 -1       476 1.16191E+00 2.98708E+01 0.00000E+00
 -1       477 9.31700E-01 2.89866E+01 0.00000E+00
 -3
    3C                           138                                     1
 -1         1   10    0    1
 -2        57        58       150       149        69       232       233       234
 -1         2   10    0    1
 -2        58        59       147       150        70       235       236       232
 -1         3   10    0    1
 -2       150       147        32       148       236       237       238       239
 -1         4   10    0    1
 -2       149       150       148       129       233       239       240       241
 -1         5   10    0    1
 -2       130       151       154       153       242       243       244       245
 -1         6   10    0    1
 -2       151       105       106       154       246       117       247       243
 -1         7   10    0    1
 -2       154       106       107       152       247       118       248       249
 -1         8   10    0    1
 -2       153       154       152       135       244       249       250       251
 -1         9   10    0    1
 -2         8        79       158       157        82       252       253       254
 -1        10   10    0    1
 -2        79        80       155       158        83       255       256       252
 -1        11   10    0    1
 -2       158       155       103       156       256       257       258       259
 -1        12   10    0    1
 -2       157       158       156       136       253       259       260       261
 -1        13   10    0    1
 -2        65        66       161       160        77       262       263       264
 -1        14   10    0    1
 -2        66         8       157       161        78       254       265       262
 -1        15   10    0    1
 -2       161       157       136       159       265       261       266       267
 -1        16   10    0    1
 -2       160       161       159       130       263       267       268       269
 -1        17   10    0    1
 -2       139       162       165       164       270       271       272       273
 -1        18   10    0    1
 -2       162       131       163       165       274       275       276       271
 -1        19   10    0    1
 -2       165       163        28        29       276       277        36       278
 -1        20   10    0    1
 -2       164       165        29        30       272       278        37       279
 -1        21   10    0    1
 -2       137       166       169       168       280       281       282       283
 -1        22   10    0    1
 -2       166       130       153       169       284       245       285       281
 -1        23   10    0    1
 -2       169       153       135       167       285       251       286       287
 -1        24   10    0    1
 -2       168       169       167       124       282       287       288       289
 -1        25   10    0    1
 -2       103       155       171       102       257       290       291       114
 -1        26   10    0    1
 -2       155        80       170       171       255       292       293       290
 -1        27   10    0    1
 -2       171       170       141       145       293       294       295       296
 -1        28   10    0    1
 -2       102       171       145       101       291       296       297       113
 -1        29   10    0    1
 -2        61        62       175       174        73       298       299       300
 -1        30   10    0    1
 -2        62        63       172       175        74       301       302       298
 -1        31   10    0    1
 -2       175       172       137       173       302       303       304       305
 -1        32   10    0    1
 -2       174       175       173       131       299       305       306       307
 -1        33   10    0    1
 -2       132       176       179       178       308       309       310       311
 -1        34   10    0    1
 -2       176       124       167       179       312       288       313       309
 -1        35   10    0    1
 -2       179       167       135       177       313       286       314       315
 -1        36   10    0    1
 -2       178       179       177       127       310       315       316       317
 -1        37   10    0    1
 -2       124       176       181       168       312       318       319       289
 -1        38   10    0    1
 -2       176       132       180       181       308       320       321       318
 -1        39   10    0    1
 -2       181       180       131       173       321       322       306       323
 -1        40   10    0    1
 -2       168       181       173       137       319       323       304       283
 -1        41   10    0    1
 -2        59       182       183       147       324       325       326       235
 -1        42   10    0    1
 -2       182       139       164       183       327       273       328       325
 -1        43   10    0    1
 -2       183       164        30        31       328       279        38       329
 -1        44   10    0    1
 -2       147       183        31        32       326       329        39       237
 -1        45   10    0    1
 -2       109       184       185       108       330       331       332       120
 -1        46   10    0    1
 -2       184       127       177       185       333       316       334       331
 -1        47   10    0    1
 -2       185       177       135       152       334       314       250       335
 -1        48   10    0    1
 -2       108       185       152       107       332       335       248       119
 -1        49   10    0    1
 -2         4        42       189       188        45       336       337       338
 -1        50   10    0    1
 -2        42        43       186       189        46       339       340       336
 -1        51   10    0    1
 -2       189       186       138       187       340       341       342       343
 -1        52   10    0    1
 -2       188       189       187       128       337       343       344       345
 -1        53   10    0    1
 -2       130       166       190       160       284       346       347       269
 -1        54   10    0    1
 -2       166       137       172       190       280       303       348       346
 -1        55   10    0    1
 -2       190       172        63        64       348       301        75       349
 -1        56   10    0    1
 -2       160       190        64        65       347       349        76       264
 -1        57   10    0    1
 -2       131       162       191       174       274       350       351       307
 -1        58   10    0    1
 -2       162       139       182       191       270       327       352       350
 -1        59   10    0    1
 -2       191       182        59        60       352       324        71       353
 -1        60   10    0    1
 -2       174       191        60        61       351       353        72       300
 -1        61   10    0    1
 -2       130       159       192       151       268       354       355       242
 -1        62   10    0    1
 -2       159       136       156       192       266       260       356       354
 -1        63   10    0    1
 -2       192       156       103       104       356       258       115       357
 -1        64   10    0    1
 -2       151       192       104       105       355       357       116       246
 -1        65   10    0    1
 -2       140       193       196       195       358       359       360       361
 -1        66   10    0    1
 -2       193       132       178       196       362       311       363       359
 -1        67   10    0    1
 -2       196       178       127       194       363       317       364       365
 -1        68   10    0    1
 -2       195       196       194       142       360       365       366       367
 -1        69   10    0    1
 -2       131       180       198       163       322       368       369       275
 -1        70   10    0    1
 -2       180       132       193       198       320       362       370       368
 -1        71   10    0    1
 -2       198       193       140       197       370       358       371       372
 -1        72   10    0    1
 -2       163       198       197        28       369       372       373       277
 -1        73   10    0    1
 -2       109       199       201       184       374       375       376       330
 -1        74   10    0    1
 -2       199       133       200       201       377       378       379       375
 -1        75   10    0    1
 -2       201       200       142       194       379       380       366       381
 -1        76   10    0    1
 -2       184       201       194       127       376       381       364       333
 -1        77   10    0    1
 -2        80        81       203       170        84       382       383       292
 -1        78   10    0    1
 -2        81        10        86       203        85        89       384       382
 -1        79   10    0    1
 -2       203        86        87       202       384        90       385       386
 -1        80   10    0    1
 -2       170       203       202       141       383       386       387       294
 -1        81   10    0    1
 -2        21       204       207       206       388       389       390       391
 -1        82   10    0    1
 -2       204       133       199       207       392       377       393       389
 -1        83   10    0    1
 -2       207       199       109       205       393       374       394       395
 -1        84   10    0    1
 -2       206       207       205       125       390       395       396       397
 -1        85   10    0    1
 -2       126       208       210       209       398       399       400       401
 -1        86   10    0    1
 -2       208       123       146       210       402       403       404       399
 -1        87   10    0    1
 -2       210       146       141       202       404       405       387       406
 -1        88   10    0    1
 -2       209       210       202        87       400       406       385       407
 -1        89   10    0    1
 -2        21        22       212       204        25       408       409       388
 -1        90   10    0    1
 -2        22         3       211       212        26       410       411       408
 -1        91   10    0    1
 -2       212       211       142       200       411       412       380       413
 -1        92   10    0    1
 -2       204       212       200       133       409       413       378       392
 -1        93   10    0    1
 -2       128       213       216       215       414       415       416       417
 -1        94   10    0    1
 -2       213       134       214       216       418       419       420       415
 -1        95   10    0    1
 -2       216       214        57       149       420       421       234       422
 -1        96   10    0    1
 -2       215       216       149       129       416       422       241       423
 -1        97   10    0    1
 -2       134       213       219       218       418       424       425       426
 -1        98   10    0    1
 -2       213       128       187       219       414       344       427       424
 -1        99   10    0    1
 -2       219       187       138       217       427       342       428       429
 -1       100   10    0    1
 -2       218       219       217        50       425       429       430       431
 -1       101   10    0    1
 -2       142       211       220       195       412       432       433       367
 -1       102   10    0    1
 -2       211         3        27       220       410        34       434       432
 -1       103   10    0    1
 -2       220        27        28       197       434        35       373       435
 -1       104   10    0    1
 -2       195       220       197       140       433       435       371       361
 -1       105   10    0    1
 -2        43        44       221       186        47       436       437       339
 -1       106   10    0    1
 -2        44         5        49       221        48        52       438       436
 -1       107   10    0    1
 -2       221        49        50       217       438        53       430       439
 -1       108   10    0    1
 -2       186       221       217       138       437       439       428       341
 -1       109   10    0    1
 -2        50        51       222       218        54       440       441       431
 -1       110   10    0    1
 -2        51         6        56       222        55        67       442       440
 -1       111   10    0    1
 -2       222        56        57       214       442        68       421       443
 -1       112   10    0    1
 -2       218       222       214       134       441       443       419       426
 -1       113   10    0    1
 -2       109       110       224       205       121       444       445       394
 -1       114   10    0    1
 -2       110         1        13       224       122        16       446       444
 -1       115   10    0    1
 -2       224        13        14       223       446        17       447       448
 -1       116   10    0    1
 -2       205       224       223       125       445       448       449       396
 -1       117   10    0    1
 -2        21       206       225        20       391       450       451        24
 -1       118   10    0    1
 -2       206       125       223       225       397       449       452       450
 -1       119   10    0    1
 -2       225       223        14        15       452       447        18       453
 -1       120   10    0    1
 -2        20       225        15         2       451       453        19        23
 -1       121   10    0    1
 -2        32        33       226       148        40       454       455       238
 -1       122   10    0    1
 -2        33         4       188       226        41       338       456       454
 -1       123   10    0    1
 -2       226       188       128       215       456       345       417       457
 -1       124   10    0    1
 -2       148       226       215       129       455       457       423       240
 -1       125   10    0    1
 -2        87        88       228       209        91       458       459       407
 -1       126   10    0    1
 -2        88        11        93       228        92        96       460       458
 -1       127   10    0    1
 -2       228        93        94       227       460        97       461       462
 -1       128   10    0    1
 -2       209       228       227       126       459       462       463       401
 -1       129   10    0    1
 -2       123       208       229       144       402       464       465       466
 -1       130   10    0    1
 -2       208       126       227       229       398       463       467       464
 -1       131   10    0    1
 -2       229       227        94        95       467       461        98       468
 -1       132   10    0    1
 -2       144       229        95        12       465       468        99       469
 -1       133   10    0    1
 -2       101       143       230       100       470       471       472       112
 -1       134   10    0    1
 -2       143       123       144       230       473       466       474       471
 -1       135   10    0    1
 -2       100       230       144        12       472       474       469       111
 -1       136   10    0    1
 -2       123       143       231       146       473       475       476       403
 -1       137   10    0    1
 -2       143       101       145       231       470       297       477       475
 -1       138   10    0    1
 -2       146       231       145       141       476       477       295       405
 -3
    1PSTEP                         1           1           1          
  100CL  101 1.000000000         475                     0    1           1
 -4  DISP        4    1
 -5  D1          1    2    1    0
 -5  D2          1    2    2    0
 -5  D3          1    2    3    0
 -5  ALL         1    2    0    0    1ALL
 -1         1 0.00000E+00 0.00000E+00 0.00000E+00
 -1         2 1.22395E-05 8.08072E-05 0.00000E+00
 -1         3-3.61932E-05 1.41886E-04 0.00000E+00
 -1         4-2.05018E-04 7.59706E-04 0.00000E+00
 -1         5-2.11318E-04 7.99168E-04 0.00000E+00
 -1         6-3.03245E-04 7.88613E-04 0.00000E+00
 -1         8-8.86803E-05 6.48595E-05 0.00000E+00
 -1        10-1.77539E-05 3.46565E-06 0.00000E+00
 -1        11-1.00305E-06-2.56892E-06 0.00000E+00
 -1        12 0.00000E+00 0.00000E+00 0.00000E+00
 -1        13 1.35633E-05 2.78903E-05 0.00000E+00
 -1        14 1.80621E-05 4.86152E-05 0.00000E+00
 -1        15 1.66230E-05 6.65403E-05 0.00000E+00
 -1        16 6.64222E-06 1.40276E-05 0.00000E+00
 -1        17 1.65816E-05 3.89467E-05 0.00000E+00
 -1        18 1.78181E-05 5.80726E-05 0.00000E+00
 -1        19 1.47683E-05 7.41781E-05 0.00000E+00
 -1        20-7.46130E-06 9.30070E-05 0.00000E+00
 -1        21-1.95450E-05 1.06735E-04 0.00000E+00
 -1        22-2.96319E-05 1.21950E-04 0.00000E+00
 -1        23 6.24448E-07 8.70459E-05 0.00000E+00
 -1        24-1.39301E-05 9.96034E-05 0.00000E+00
 -1        25-2.49454E-05 1.14172E-04 0.00000E+00
 -1        26-3.30011E-05 1.30896E-04 0.00000E+00
 -1        27-4.65148E-05 2.21819E-04 0.00000E+00
 -1        28-6.77113E-05 2.94238E-04 0.00000E+00
 -1        29-8.97058E-05 3.69031E-04 0.00000E+00
 -1        30-1.12841E-04 4.48230E-04 0.00000E+00
 -1        31-1.37782E-04 5.30074E-04 0.00000E+00
 -1        32-1.63584E-04 6.10777E-04 0.00000E+00
 -1        33-1.87316E-04 6.87108E-04 0.00000E+00
 -1        34-3.76277E-05 1.83796E-04 0.00000E+00
 -1        35-5.67726E-05 2.58105E-04 0.00000E+00
 -1        36-7.85773E-05 3.31109E-04 0.00000E+00
 -1        37-1.01083E-04 4.08117E-04 0.00000E+00
 -1        38-1.25143E-04 4.89043E-04 0.00000E+00
 -1        39-1.50790E-04 5.70818E-04 0.00000E+00
 -1        40-1.75963E-04 6.49578E-04 0.00000E+00
 -1        41-1.97044E-04 7.23484E-04 0.00000E+00
 -1        42-2.06827E-04 7.69376E-04 0.00000E+00
 -1        43-2.08463E-04 7.79259E-04 0.00000E+00
 -1        44-2.09958E-04 7.89205E-04 0.00000E+00
 -1        45-2.05935E-04 7.64518E-04 0.00000E+00
 -1        46-2.07669E-04 7.74297E-04 0.00000E+00
 -1        47-2.09227E-04 7.84229E-04 0.00000E+00
 -1        48-2.10656E-04 7.94188E-04 0.00000E+00
 -1        49-2.34527E-04 7.96590E-04 0.00000E+00
 -1        50-2.57653E-04 7.93971E-04 0.00000E+00
 -1        51-2.80590E-04 7.91277E-04 0.00000E+00
 -1        52-2.22937E-04 7.97877E-04 0.00000E+00
 -1        53-2.46101E-04 7.95291E-04 0.00000E+00
 -1        54-2.69149E-04 7.92624E-04 0.00000E+00
 -1        55-2.91950E-04 7.89929E-04 0.00000E+00
 -1        56-3.05441E-04 7.31682E-04 0.00000E+00
 -1        57-3.06753E-04 6.73070E-04 0.00000E+00
 -1        58-3.07273E-04 6.11002E-04 0.00000E+00
 -1        59-3.05524E-04 5.45160E-04 0.00000E+00
 -1        60-3.00202E-04 4.76319E-04 0.00000E+00
 -1        61-2.89620E-04 4.05992E-04 0.00000E+00
 -1        62-2.72399E-04 3.35844E-04 0.00000E+00
 -1        63-2.47338E-04 2.67973E-04 0.00000E+00
 -1        64-2.14163E-04 2.05067E-04 0.00000E+00
 -1        65-1.74215E-04 1.49745E-04 0.00000E+00
 -1        66-1.30817E-04 1.03491E-04 0.00000E+00
 -1        67-3.04531E-04 7.60242E-04 0.00000E+00
 -1        68-3.06169E-04 7.02691E-04 0.00000E+00
 -1        69-3.07165E-04 6.42549E-04 0.00000E+00
 -1        70-3.06718E-04 5.78512E-04 0.00000E+00
 -1        71-3.03428E-04 5.11017E-04 0.00000E+00
 -1        72-2.95647E-04 4.41246E-04 0.00000E+00
 -1        73-2.81913E-04 3.70766E-04 0.00000E+00
 -1        74-2.60888E-04 3.01441E-04 0.00000E+00
 -1        75-2.31697E-04 2.35689E-04 0.00000E+00
 -1        76-1.94840E-04 1.76296E-04 0.00000E+00
 -1        77-1.52767E-04 1.25456E-04 0.00000E+00
 -1        78-1.09932E-04 8.40516E-05 0.00000E+00
 -1        79-5.38139E-05 3.77572E-05 0.00000E+00
 -1        80-3.12941E-05 2.07156E-05 0.00000E+00
 -1        81-2.05608E-05 1.00639E-05 0.00000E+00
 -1        82-7.03102E-05 4.98152E-05 0.00000E+00
 -1        83-4.08012E-05 2.82534E-05 0.00000E+00
 -1        84-2.45604E-05 1.46876E-05 0.00000E+00
 -1        85-1.86277E-05 6.49072E-06 0.00000E+00
 -1        86-1.42325E-05 1.52409E-06 0.00000E+00
 -1        87-1.00052E-05-7.49221E-07 0.00000E+00
 -1        88-5.42113E-06-2.24958E-06 0.00000E+00
 -1        89-1.60721E-05 2.58210E-06 0.00000E+00
 -1        90-1.22060E-05 3.65785E-07 0.00000E+00
 -1        91-7.69686E-06-1.63311E-06 0.00000E+00
 -1        92-3.24716E-06-2.56886E-06 0.00000E+00
 -1        93-6.29686E-07-2.12661E-06 0.00000E+00
 -1        94-2.72172E-07-1.61380E-06 0.00000E+00
 -1        95-2.23267E-08-9.63029E-07 0.00000E+00
 -1        96-8.15535E-07-2.35314E-06 0.00000E+00
 -1        97-4.45115E-07-1.88337E-06 0.00000E+00
 -1        98-1.38886E-07-1.30708E-06 0.00000E+00
 -1        99-6.47788E-09-5.06033E-07 0.00000E+00
 -1       100 0.00000E+00 0.00000E+00 0.00000E+00
 -1       101 0.00000E+00 0.00000E+00 0.00000E+00
 -1       102 0.00000E+00 0.00000E+00 0.00000E+00
 -1       103 0.00000E+00 0.00000E+00 0.00000E+00
 -1       104 0.00000E+00 0.00000E+00 0.00000E+00
 -1       105 0.00000E+00 0.00000E+00 0.00000E+00
 -1       106 0.00000E+00 0.00000E+00 0.00000E+00
 -1       107 0.00000E+00 0.00000E+00 0.00000E+00
 -1       108 0.00000E+00 0.00000E+00 0.00000E+00
 -1       109 0.00000E+00 0.00000E+00 0.00000E+00
 -1       110 0.00000E+00 0.00000E+00 0.00000E+00
 -1       111 0.00000E+00 0.00000E+00 0.00000E+00
 -1       112 0.00000E+00 0.00000E+00 0.00000E+00
 -1       113 0.00000E+00 0.00000E+00 0.00000E+00
 -1       114 0.00000E+00 0.00000E+00 0.00000E+00
 -1       115 0.00000E+00 0.00000E+00 0.00000E+00
 -1       116 0.00000E+00 0.00000E+00 0.00000E+00
 -1       117 0.00000E+00 0.00000E+00 0.00000E+00
 -1       118 0.00000E+00 0.00000E+00 0.00000E+00
 -1       119 0.00000E+00 0.00000E+00 0.00000E+00
 -1       120 0.00000E+00 0.00000E+00 0.00000E+00
 -1       121 0.00000E+00 0.00000E+00 0.00000E+00
 -1       122 0.00000E+00 0.00000E+00 0.00000E+00
 -1       123-4.80624E-06 4.13649E-07 0.00000E+00
 -1       124-1.33317E-04 1.42447E-04 0.00000E+00
 -1       125-1.17341E-05 5.00133E-05 0.00000E+00
 -1       126-4.74394E-06-7.43760E-07 0.00000E+00
 -1       127-7.12734E-05 8.71755E-05 0.00000E+00
 -1       128-2.37239E-04 7.33888E-04 0.00000E+00
 -1       129-2.44845E-04 6.78837E-04 0.00000E+00
 -1       130-1.13012E-04 8.55597E-05 0.00000E+00
 -1       131-1.84259E-04 2.94956E-04 0.00000E+00
 -1       132-1.21412E-04 1.69156E-04 0.00000E+00
 -1       133-3.45602E-05 7.81288E-05 0.00000E+00
 -1       134-2.66519E-04 7.38116E-04 0.00000E+00
 -1       135-8.03530E-05 6.86080E-05 0.00000E+00
 -1       136-7.67399E-05 5.39665E-05 0.00000E+00
 -1       137-1.79519E-04 1.87592E-04 0.00000E+00
 -1       138-2.32606E-04 7.68038E-04 0.00000E+00
 -1       139-1.98218E-04 4.27810E-04 0.00000E+00
 -1       140-9.67739E-05 1.79865E-04 0.00000E+00
 -1       141-1.11023E-05 5.74029E-06 0.00000E+00
 -1       142-6.02237E-05 1.23719E-04 0.00000E+00
 -1       143-3.08427E-06 1.42595E-06 0.00000E+00
 -1       144-2.05398E-06-5.12038E-07 0.00000E+00
 -1       145-6.63497E-06 4.27819E-06 0.00000E+00
 -1       146-7.89566E-06 2.48356E-06 0.00000E+00
 -1       147-2.38649E-04 5.77200E-04 0.00000E+00
 -1       148-2.05641E-04 6.45006E-04 0.00000E+00
 -1       149-2.76143E-04 6.75759E-04 0.00000E+00
 -1       150-2.57610E-04 6.27486E-04 0.00000E+00
 -1       151-5.99418E-05 4.19616E-05 0.00000E+00
 -1       152-4.16467E-05 3.24324E-05 0.00000E+00
 -1       153-9.86051E-05 7.80460E-05 0.00000E+00
 -1       154-5.18611E-05 3.74316E-05 0.00000E+00
 -1       155-2.76724E-05 2.26120E-05 0.00000E+00
 -1       156-3.81970E-05 2.82421E-05 0.00000E+00
 -1       157-8.55993E-05 6.04772E-05 0.00000E+00
 -1       158-5.36437E-05 3.91296E-05 0.00000E+00
 -1       159-9.66637E-05 6.93380E-05 0.00000E+00
 -1       160-1.46883E-04 1.16902E-04 0.00000E+00
 -1       161-1.17396E-04 8.72199E-05 0.00000E+00
 -1       162-1.92999E-04 3.60584E-04 0.00000E+00
 -1       163-1.31148E-04 2.93086E-04 0.00000E+00
 -1       164-1.58191E-04 4.37791E-04 0.00000E+00
 -1       165-1.45079E-04 3.64075E-04 0.00000E+00
 -1       166-1.50927E-04 1.31637E-04 0.00000E+00
 -1       167-1.08727E-04 1.03776E-04 0.00000E+00
 -1       168-1.56577E-04 1.64892E-04 0.00000E+00
 -1       169-1.30832E-04 1.18301E-04 0.00000E+00
 -1       170-1.93876E-05 1.29037E-05 0.00000E+00
 -1       171-1.43446E-05 1.20893E-05 0.00000E+00
 -1       172-2.12642E-04 2.24870E-04 0.00000E+00
 -1       173-1.87484E-04 2.39314E-04 0.00000E+00
 -1       174-2.34605E-04 3.46179E-04 0.00000E+00
 -1       175-2.28061E-04 2.83810E-04 0.00000E+00
 -1       176-1.28764E-04 1.55225E-04 0.00000E+00
 -1       177-7.77292E-05 7.69899E-05 0.00000E+00
 -1       178-9.69566E-05 1.27185E-04 0.00000E+00
 -1       179-1.04614E-04 1.14710E-04 0.00000E+00
 -1       180-1.52860E-04 2.30310E-04 0.00000E+00
 -1       181-1.58052E-04 1.96298E-04 0.00000E+00
 -1       182-2.51008E-04 4.84714E-04 0.00000E+00
 -1       183-1.98629E-04 5.07065E-04 0.00000E+00
 -1       184-3.45099E-05 4.24894E-05 0.00000E+00
 -1       185-3.93995E-05 3.63825E-05 0.00000E+00
 -1       186-2.20539E-04 7.73655E-04 0.00000E+00
 -1       187-2.35094E-04 7.51019E-04 0.00000E+00
 -1       188-2.21167E-04 7.46768E-04 0.00000E+00
 -1       189-2.20963E-04 7.60240E-04 0.00000E+00
 -1       190-1.83396E-04 1.66135E-04 0.00000E+00
 -1       191-2.44730E-04 4.15273E-04 0.00000E+00
 -1       192-5.03311E-05 3.51868E-05 0.00000E+00
 -1       193-1.09925E-04 1.74202E-04 0.00000E+00
 -1       194-6.81459E-05 1.04268E-04 0.00000E+00
 -1       195-7.79078E-05 1.52016E-04 0.00000E+00
 -1       196-8.89488E-05 1.38866E-04 0.00000E+00
 -1       197-8.58645E-05 2.37406E-04 0.00000E+00
 -1       198-1.22103E-04 2.33001E-04 0.00000E+00
 -1       199-2.20155E-05 3.61985E-05 0.00000E+00
 -1       200-4.64036E-05 1.00018E-04 0.00000E+00
 -1       201-4.36872E-05 6.97404E-05 0.00000E+00
 -1       202-1.09509E-05 2.74146E-06 0.00000E+00
 -1       203-1.57350E-05 6.54247E-06 0.00000E+00
 -1       204-2.70744E-05 9.21432E-05 0.00000E+00
 -1       205-1.03583E-05 1.97250E-05 0.00000E+00
 -1       206-1.53701E-05 8.02149E-05 0.00000E+00
 -1       207-2.13406E-05 5.59104E-05 0.00000E+00
 -1       208-4.84300E-06-9.84033E-08 0.00000E+00
 -1       209-7.44981E-06-8.71078E-07 0.00000E+00
 -1       210-7.94986E-06 1.03149E-06 0.00000E+00
 -1       211-4.93381E-05 1.31656E-04 0.00000E+00
 -1       212-3.71715E-05 1.10740E-04 0.00000E+00
 -1       213-2.51934E-04 7.35996E-04 0.00000E+00
 -1       214-2.87271E-04 7.05870E-04 0.00000E+00
 -1       215-2.41391E-04 7.06637E-04 0.00000E+00
 -1       216-2.64513E-04 7.06190E-04 0.00000E+00
 -1       217-2.45298E-04 7.81024E-04 0.00000E+00
 -1       218-2.62596E-04 7.66054E-04 0.00000E+00
 -1       219-2.48936E-04 7.58550E-04 0.00000E+00
 -1       220-6.54982E-05 1.86493E-04 0.00000E+00
 -1       221-2.27651E-04 7.85119E-04 0.00000E+00
 -1       222-2.84369E-04 7.48815E-04 0.00000E+00
 -1       223-2.65244E-06 4.86580E-05 0.00000E+00
 -1       224-4.98926E-06 2.06299E-05 0.00000E+00
 -1       225-3.77691E-06 7.35103E-05 0.00000E+00
 -1       226-2.14644E-04 6.96814E-04 0.00000E+00
 -1       227-2.58811E-06-1.33707E-06 0.00000E+00
 -1       228-4.02783E-06-1.86370E-06 0.00000E+00
 -1       229-2.36960E-06-8.63213E-07 0.00000E+00
 -1       230-1.84392E-06 4.26088E-07 0.00000E+00
 -1       231-5.97884E-06 2.85724E-06 0.00000E+00
 -1       232-2.82569E-04 6.19074E-04 0.00000E+00
 -1       233-2.67114E-04 6.51934E-04 0.00000E+00
 -1       234-2.91531E-04 6.74375E-04 0.00000E+00
 -1       235-2.72843E-04 5.60772E-04 0.00000E+00
 -1       236-2.48240E-04 6.02596E-04 0.00000E+00
 -1       237-2.02333E-04 5.94034E-04 0.00000E+00
 -1       238-1.84997E-04 6.27934E-04 0.00000E+00
 -1       239-2.31937E-04 6.36152E-04 0.00000E+00
 -1       240-2.25511E-04 6.61961E-04 0.00000E+00
 -1       241-2.60575E-04 6.77251E-04 0.00000E+00
 -1       242-8.73489E-05 6.32730E-05 0.00000E+00
 -1       243-5.62929E-05 3.98098E-05 0.00000E+00
 -1       244-7.58977E-05 5.73077E-05 0.00000E+00
 -1       245-1.06489E-04 8.21564E-05 0.00000E+00
 -1       246-3.07791E-05 2.10646E-05 0.00000E+00
 -1       247-2.65218E-05 1.82811E-05 0.00000E+00
 -1       248-2.11782E-05 1.56182E-05 0.00000E+00
 -1       249-4.69277E-05 3.49102E-05 0.00000E+00
 -1       250-6.13834E-05 5.01283E-05 0.00000E+00
 -1       251-8.97930E-05 7.34856E-05 0.00000E+00
 -1       252-5.64759E-05 4.06200E-05 0.00000E+00
 -1       253-6.93587E-05 4.90062E-05 0.00000E+00
 -1       254-8.77629E-05 6.25128E-05 0.00000E+00
 -1       255-3.26115E-05 2.55932E-05 0.00000E+00
 -1       256-3.99498E-05 3.06806E-05 0.00000E+00
 -1       257-1.64184E-05 1.36722E-05 0.00000E+00
 -1       258-1.89697E-05 1.48571E-05 0.00000E+00
 -1       259-4.73167E-05 3.47374E-05 0.00000E+00
 -1       260-5.75324E-05 4.08632E-05 0.00000E+00
 -1       261-8.18227E-05 5.76236E-05 0.00000E+00
 -1       262-1.25124E-04 9.56727E-05 0.00000E+00
 -1       263-1.32723E-04 1.01693E-04 0.00000E+00
 -1       264-1.61363E-04 1.32807E-04 0.00000E+00
 -1       265-1.01553E-04 7.34148E-05 0.00000E+00
 -1       266-8.70728E-05 6.15630E-05 0.00000E+00
 -1       267-1.07902E-04 7.85067E-05 0.00000E+00
 -1       268-1.05378E-04 7.73207E-05 0.00000E+00
 -1       269-1.30748E-04 1.01260E-04 0.00000E+00
 -1       270-1.96007E-04 3.94080E-04 0.00000E+00
 -1       271-1.69900E-04 3.62135E-04 0.00000E+00
 -1       272-1.51728E-04 4.00656E-04 0.00000E+00
 -1       273-1.78804E-04 4.32736E-04 0.00000E+00
 -1       274-1.89099E-04 3.27477E-04 0.00000E+00
 -1       275-1.58885E-04 2.93640E-04 0.00000E+00
 -1       276-1.38216E-04 3.28221E-04 0.00000E+00
 -1       277-1.00770E-04 2.93309E-04 0.00000E+00
 -1       278-1.18366E-04 3.66389E-04 0.00000E+00
 -1       279-1.36261E-04 4.42964E-04 0.00000E+00
 -1       280-1.66515E-04 1.58394E-04 0.00000E+00
 -1       281-1.41216E-04 1.25133E-04 0.00000E+00
 -1       282-1.44519E-04 1.40805E-04 0.00000E+00
 -1       283-1.68076E-04 1.76176E-04 0.00000E+00
 -1       284-1.32969E-04 1.07401E-04 0.00000E+00
 -1       285-1.15505E-04 9.74245E-05 0.00000E+00
 -1       286-9.50322E-05 8.57620E-05 0.00000E+00
 -1       287-1.19948E-04 1.11177E-04 0.00000E+00
 -1       288-1.21480E-04 1.22681E-04 0.00000E+00
 -1       289-1.44967E-04 1.53673E-04 0.00000E+00
 -1       290-2.01154E-05 1.71032E-05 0.00000E+00
 -1       291-8.36188E-06 7.49487E-06 0.00000E+00
 -1       292-2.45729E-05 1.65133E-05 0.00000E+00
 -1       293-1.76777E-05 1.37025E-05 0.00000E+00
 -1       294-1.50411E-05 9.10377E-06 0.00000E+00
 -1       295-9.07205E-06 5.27503E-06 0.00000E+00
 -1       296-9.80424E-06 7.63104E-06 0.00000E+00
 -1       297-3.55824E-06 2.47494E-06 0.00000E+00
 -1       298-2.49472E-04 3.08635E-04 0.00000E+00
 -1       299-2.32472E-04 3.14756E-04 0.00000E+00
 -1       300-2.61186E-04 3.74864E-04 0.00000E+00
 -1       301-2.29575E-04 2.45413E-04 0.00000E+00
 -1       302-2.21613E-04 2.53832E-04 0.00000E+00
 -1       303-1.96039E-04 2.05749E-04 0.00000E+00
 -1       304-1.84916E-04 2.12828E-04 0.00000E+00
 -1       305-2.07512E-04 2.60857E-04 0.00000E+00
 -1       306-1.87207E-04 2.66788E-04 0.00000E+00
 -1       307-2.09102E-04 3.19645E-04 0.00000E+00
 -1       308-1.25456E-04 1.62030E-04 0.00000E+00
 -1       309-1.17010E-04 1.34650E-04 0.00000E+00
 -1       310-1.01266E-04 1.20731E-04 0.00000E+00
 -1       311-1.09318E-04 1.47998E-04 0.00000E+00
 -1       312-1.31370E-04 1.48701E-04 0.00000E+00
 -1       313-1.07088E-04 1.09069E-04 0.00000E+00
 -1       314-7.94849E-05 7.26052E-05 0.00000E+00
 -1       315-9.15382E-05 9.54692E-05 0.00000E+00
 -1       316-7.50584E-05 8.18351E-05 0.00000E+00
 -1       317-8.42767E-05 1.06860E-04 0.00000E+00
 -1       318-1.43422E-04 1.75589E-04 0.00000E+00
 -1       319-1.58115E-04 1.80241E-04 0.00000E+00
 -1       320-1.37226E-04 1.99419E-04 0.00000E+00
 -1       321-1.56292E-04 2.13018E-04 0.00000E+00
 -1       322-1.68481E-04 2.62078E-04 0.00000E+00
 -1       323-1.72700E-04 2.17469E-04 0.00000E+00
 -1       324-2.78024E-04 5.14643E-04 0.00000E+00
 -1       325-2.25750E-04 4.95739E-04 0.00000E+00
 -1       326-2.18848E-04 5.42231E-04 0.00000E+00
 -1       327-2.24486E-04 4.55713E-04 0.00000E+00
 -1       328-1.78395E-04 4.72135E-04 0.00000E+00
 -1       329-1.69473E-04 5.18575E-04 0.00000E+00
 -1       330-1.71821E-05 2.09884E-05 0.00000E+00
 -1       331-3.73270E-05 3.90034E-05 0.00000E+00
 -1       332-1.98851E-05 1.74407E-05 0.00000E+00
 -1       333-5.24828E-05 6.44833E-05 0.00000E+00
 -1       334-5.87246E-05 5.62649E-05 0.00000E+00
 -1       335-4.08543E-05 3.41933E-05 0.00000E+00
 -1       336-2.13880E-04 7.64839E-04 0.00000E+00
 -1       337-2.21096E-04 7.53531E-04 0.00000E+00
 -1       338-2.13076E-04 7.53239E-04 0.00000E+00
 -1       339-2.14510E-04 7.76448E-04 0.00000E+00
 -1       340-2.20778E-04 7.66946E-04 0.00000E+00
 -1       341-2.26574E-04 7.70850E-04 0.00000E+00
 -1       342-2.33895E-04 7.59533E-04 0.00000E+00
 -1       343-2.28039E-04 7.55632E-04 0.00000E+00
 -1       344-2.36211E-04 7.42466E-04 0.00000E+00
 -1       345-2.29206E-04 7.40330E-04 0.00000E+00
 -1       346-1.67470E-04 1.48601E-04 0.00000E+00
 -1       347-1.65927E-04 1.40316E-04 0.00000E+00
 -1       348-1.99109E-04 1.94451E-04 0.00000E+00
 -1       349-1.98803E-04 1.84694E-04 0.00000E+00
 -1       350-2.18572E-04 3.87122E-04 0.00000E+00
 -1       351-2.40317E-04 3.80607E-04 0.00000E+00
 -1       352-2.48456E-04 4.50121E-04 0.00000E+00
 -1       353-2.71796E-04 4.45059E-04 0.00000E+00
 -1       354-7.40472E-05 5.19486E-05 0.00000E+00
 -1       355-5.55196E-05 3.85935E-05 0.00000E+00
 -1       356-4.45579E-05 3.17964E-05 0.00000E+00
 -1       357-2.56160E-05 1.82419E-05 0.00000E+00
 -1       358-1.03555E-04 1.76952E-04 0.00000E+00
 -1       359-9.94007E-05 1.56523E-04 0.00000E+00
 -1       360-8.38527E-05 1.45235E-04 0.00000E+00
 -1       361-8.72031E-05 1.66049E-04 0.00000E+00
 -1       362-1.15846E-04 1.71612E-04 0.00000E+00
 -1       363-9.32892E-05 1.32867E-04 0.00000E+00
 -1       364-7.02423E-05 9.54507E-05 0.00000E+00
 -1       365-7.85147E-05 1.21368E-04 0.00000E+00
 -1       366-6.48419E-05 1.13663E-04 0.00000E+00
 -1       367-6.88943E-05 1.37803E-04 0.00000E+00
 -1       368-1.38073E-04 2.31484E-04 0.00000E+00
 -1       369-1.26894E-04 2.62891E-04 0.00000E+00
 -1       370-1.16517E-04 2.03418E-04 0.00000E+00
 -1       371-9.25786E-05 2.08552E-04 0.00000E+00
 -1       372-1.04755E-04 2.34964E-04 0.00000E+00
 -1       373-7.73671E-05 2.65983E-04 0.00000E+00
 -1       374-1.22126E-05 1.70849E-05 0.00000E+00
 -1       375-3.25755E-05 5.30962E-05 0.00000E+00
 -1       376-3.98560E-05 5.57196E-05 0.00000E+00
 -1       377-2.94255E-05 5.68265E-05 0.00000E+00
 -1       378-4.02860E-05 8.89970E-05 0.00000E+00
 -1       379-4.58674E-05 8.45247E-05 0.00000E+00
 -1       380-5.30923E-05 1.11556E-04 0.00000E+00
 -1       381-5.55217E-05 8.66937E-05 0.00000E+00
 -1       382-1.81190E-05 8.50746E-06 0.00000E+00
 -1       383-1.72168E-05 9.50676E-06 0.00000E+00
 -1       384-1.49999E-05 3.93677E-06 0.00000E+00
 -1       385-1.06695E-05 1.10680E-06 0.00000E+00
 -1       386-1.34000E-05 4.59746E-06 0.00000E+00
 -1       387-1.10737E-05 4.28426E-06 0.00000E+00
 -1       388-2.33539E-05 9.95708E-05 0.00000E+00
 -1       389-2.46592E-05 7.42320E-05 0.00000E+00
 -1       390-1.90257E-05 6.77165E-05 0.00000E+00
 -1       391-1.72958E-05 9.37586E-05 0.00000E+00
 -1       392-3.09182E-05 8.49411E-05 0.00000E+00
 -1       393-2.23263E-05 4.53839E-05 0.00000E+00
 -1       394-5.95417E-06 8.81541E-06 0.00000E+00
 -1       395-1.67430E-05 3.74820E-05 0.00000E+00
 -1       396-1.24103E-05 3.33263E-05 0.00000E+00
 -1       397-1.36399E-05 6.57200E-05 0.00000E+00
 -1       398-4.80599E-06-4.05920E-07 0.00000E+00
 -1       399-6.39838E-06 3.85688E-07 0.00000E+00
 -1       400-7.79467E-06 1.52514E-07 0.00000E+00
 -1       401-6.11712E-06-8.36841E-07 0.00000E+00
 -1       402-4.83720E-06 1.69295E-07 0.00000E+00
 -1       403-6.33913E-06 1.30999E-06 0.00000E+00
 -1       404-7.96733E-06 1.80476E-06 0.00000E+00
 -1       405-9.47241E-06 3.95411E-06 0.00000E+00
 -1       406-9.47668E-06 1.83047E-06 0.00000E+00
 -1       407-8.74251E-06-8.41538E-07 0.00000E+00
 -1       408-3.25234E-05 1.16592E-04 0.00000E+00
 -1       409-3.19712E-05 1.01336E-04 0.00000E+00
 -1       410-4.33579E-05 1.36170E-04 0.00000E+00
 -1       411-4.25459E-05 1.20862E-04 0.00000E+00
 -1       412-5.50976E-05 1.27523E-04 0.00000E+00
 -1       413-4.17478E-05 1.05224E-04 0.00000E+00
 -1       414-2.44597E-04 7.34942E-04 0.00000E+00
 -1       415-2.58342E-04 7.21155E-04 0.00000E+00
 -1       416-2.52993E-04 7.06403E-04 0.00000E+00
 -1       417-2.39401E-04 7.20316E-04 0.00000E+00
 -1       418-2.59241E-04 7.37055E-04 0.00000E+00
 -1       419-2.77062E-04 7.22036E-04 0.00000E+00
 -1       420-2.75944E-04 7.06016E-04 0.00000E+00
 -1       421-2.97155E-04 6.89548E-04 0.00000E+00
 -1       422-2.70449E-04 6.91078E-04 0.00000E+00
 -1       423-2.43197E-04 6.92819E-04 0.00000E+00
 -1       424-2.50513E-04 7.47294E-04 0.00000E+00
 -1       425-2.55789E-04 7.62307E-04 0.00000E+00
 -1       426-2.64677E-04 7.52108E-04 0.00000E+00
 -1       427-2.42036E-04 7.54787E-04 0.00000E+00
 -1       428-2.38993E-04 7.74534E-04 0.00000E+00
 -1       429-2.47198E-04 7.69784E-04 0.00000E+00
 -1       430-2.51517E-04 7.87504E-04 0.00000E+00
 -1       431-2.60254E-04 7.79997E-04 0.00000E+00
 -1       432-5.72968E-05 1.59306E-04 0.00000E+00
 -1       433-7.28504E-05 1.68778E-04 0.00000E+00
 -1       434-5.67219E-05 2.04377E-04 0.00000E+00
 -1       435-7.53086E-05 2.12240E-04 0.00000E+00
 -1       436-2.18816E-04 7.87161E-04 0.00000E+00
 -1       437-2.24125E-04 7.79383E-04 0.00000E+00
 -1       438-2.31118E-04 7.90854E-04 0.00000E+00
 -1       439-2.36479E-04 7.83073E-04 0.00000E+00
 -1       440-2.82780E-04 7.70071E-04 0.00000E+00
 -1       441-2.73555E-04 7.57414E-04 0.00000E+00
 -1       442-2.95000E-04 7.40231E-04 0.00000E+00
 -1       443-2.86072E-04 7.27484E-04 0.00000E+00
 -1       444-3.36312E-06 9.16325E-06 0.00000E+00
 -1       445-7.87848E-06 2.00143E-05 0.00000E+00
 -1       446-1.15487E-06 2.15671E-05 0.00000E+00
 -1       447 5.41899E-06 4.85993E-05 0.00000E+00
 -1       448-5.44739E-06 3.36596E-05 0.00000E+00
 -1       449-7.64554E-06 4.91841E-05 0.00000E+00
 -1       450-1.00314E-05 7.67796E-05 0.00000E+00
 -1       451-5.30472E-06 8.38225E-05 0.00000E+00
 -1       452-2.91125E-06 6.18255E-05 0.00000E+00
 -1       453 4.50827E-06 7.02632E-05 0.00000E+00
 -1       454-2.01044E-04 6.91956E-04 0.00000E+00
 -1       455-2.10394E-04 6.71239E-04 0.00000E+00
 -1       456-2.18268E-04 7.21911E-04 0.00000E+00
 -1       457-2.28078E-04 7.01711E-04 0.00000E+00
 -1       458-4.73046E-06-2.06956E-06 0.00000E+00
 -1       459-5.71361E-06-1.45043E-06 0.00000E+00
 -1       460-2.38600E-06-2.08413E-06 0.00000E+00
 -1       461-1.52299E-06-1.49375E-06 0.00000E+00
 -1       462-3.31170E-06-1.62230E-06 0.00000E+00
 -1       463-3.63979E-06-1.09071E-06 0.00000E+00
 -1       464-3.57641E-06-5.58137E-07 0.00000E+00
 -1       465-2.23220E-06-6.62350E-07 0.00000E+00
 -1       466-3.39968E-06-1.47650E-07 0.00000E+00
 -1       467-2.50275E-06-1.07965E-06 0.00000E+00
 -1       468-1.30555E-06-9.41907E-07 0.00000E+00
 -1       469-9.30462E-07-4.71337E-07 0.00000E+00
 -1       470-1.70076E-06 1.01781E-06 0.00000E+00
 -1       471-2.43859E-06 8.38034E-07 0.00000E+00
 -1       472-9.61257E-07 2.66193E-07 0.00000E+00
 -1       473-4.13422E-06 1.18386E-06 0.00000E+00
 -1       474-2.06941E-06 1.36552E-07 0.00000E+00
 -1       475-4.55089E-06 2.11868E-06 0.00000E+00
 -1       476-7.01544E-06 2.80045E-06 0.00000E+00
 -1       477-6.26254E-06 3.52484E-06 0.00000E+00
 -3
    1PSTEP                         2           1           1          
  100CL  101 1.000000000         475                     0    1           1
 -4  STRESS      6    1
 -5  SXX         1    4    1    1
 -5  SYY         1    4    2    2
 -5  SZZ         1    4    3    3
 -5  SXY         1    4    1    2
 -5  SYZ         1    4    2    3
 -5  SZX         1    4    3    1
 -1         1 6.85097E+05 1.71421E+05 1.71304E+05 5.73292E+05-7.99844E-14-4.82992E-14
 -1         2-3.90769E+05-3.92843E+05-1.56722E+05 2.09520E+04 2.61657E-12-2.27917E-13
 -1         3 7.37447E+04-2.82738E+05-4.17987E+04 1.54436E+05-2.60912E-12-1.36968E-12
 -1         4-1.48279E+05-1.18664E+05-5.33887E+04-2.12730E+03 7.73959E-12 5.18743E-13
 -1         5-1.01491E+05-1.01076E+05-4.05133E+04 6.62926E+01 6.67624E-12 1.96313E-11
 -1         6-1.03929E+05-1.02162E+05-4.12182E+04 1.12929E+02 4.63584E-12 5.01114E-12
 -1         8-4.64101E+05-3.89847E+05-1.70790E+05 3.14473E+05 1.62270E-12 7.08589E-13
 -1        10-1.06391E+05-1.04392E+05-4.21566E+04 2.76265E+03 1.16681E-13 1.21302E-13
 -1        11-1.01776E+05-1.00467E+05-4.04486E+04-2.72690E+03 2.34892E-14 2.67509E-14
 -1        12-6.95985E+04-4.50466E+04-2.29290E+04-5.16992E+04-3.63399E-15 9.89718E-15
 -1        13 4.50835E+05-3.07162E+05 2.87346E+04 2.38864E+05 2.29946E-13 3.18317E-13
 -1        14-4.68907E+04-3.75198E+05-8.44178E+04 3.59392E+04 1.31158E-12 1.64095E-13
 -1        15-2.68249E+05-4.22314E+05-1.38112E+05 2.44695E+04 4.62932E-13-2.38433E-14
 -1        16 6.61971E+05-2.92665E+04 1.26541E+05 4.43858E+05 4.23928E-13-2.99103E-13
 -1        17 1.19674E+05-3.98233E+05-5.57118E+04 9.67253E+04 5.75172E-14 2.22361E-13
 -1        18-1.77339E+05-4.15362E+05-1.18540E+05 3.11075E+04 3.96814E-13 2.36016E-13
 -1        19-3.31212E+05-4.27937E+05-1.51830E+05 1.67127E+04-2.10590E-12-2.19785E-13
 -1        20-2.55695E+05-2.90515E+05-1.09242E+05 1.24534E+05 4.58594E-14 5.47532E-15
 -1        21-2.06514E+05-2.49032E+05-9.11091E+04 1.54028E+05-4.41935E-13 3.15372E-13
 -1        22-1.65013E+05-2.11798E+05-7.53623E+04 1.90139E+05-1.21868E-12-1.74919E-13
 -1        23-3.11772E+05-3.31490E+05-1.28653E+05 6.73840E+04-1.20223E-12-8.91954E-15
 -1        24-2.22710E+05-2.51458E+05-9.48337E+04 1.37393E+05 4.91724E-12-5.44713E-13
 -1        25-2.08516E+05-2.37314E+05-8.91659E+04 1.73573E+05 3.74568E-12-1.74065E-12
 -1        26-1.27058E+04-2.04922E+05-4.35255E+04 1.95047E+05 7.06457E-12-2.36052E-13
 -1        27-2.84090E+05-3.39974E+05-1.24813E+05-2.03089E+04-4.26889E-12 1.39310E-12
 -1        28-2.69869E+05-2.98896E+05-1.13753E+05-1.30079E+03 4.80619E-12 3.37180E-13
 -1        29-2.64795E+05-2.63497E+05-1.05658E+05 4.46987E+02-1.21937E-11 1.66215E-13
 -1        30-2.71555E+05-2.31645E+05-1.00640E+05 4.96161E+02 9.40412E-12-5.97424E-12
 -1        31-2.81046E+05-2.00480E+05-9.63052E+04 3.50548E+02 1.74867E-11 3.50342E-13
 -1        32-2.68682E+05-1.68560E+05-8.74485E+04 1.75171E+02-2.80598E-13 4.61968E-12
 -1        33-2.23414E+05-1.33833E+05-7.14494E+04-1.69856E+03 1.24671E-11-5.71521E-13
 -1        34-1.72930E+05-3.47729E+05-1.04132E+05 2.36242E+04 1.19259E-12-1.59343E-13
 -1        35-2.65245E+05-3.09870E+05-1.15023E+05-5.22563E+03 2.32854E-12 1.84459E-12
 -1        36-2.65156E+05-2.80595E+05-1.09150E+05-1.34179E+02-1.76968E-12-7.23112E-14
 -1        37-2.66932E+05-2.47646E+05-1.02916E+05 4.39322E+01 1.05867E-11 3.88693E-12
 -1        38-2.75603E+05-2.15784E+05-9.82774E+04-1.89034E+02-7.69035E-12 4.95297E-12
 -1        39-2.76482E+05-1.85568E+05-9.24100E+04-1.14550E+02 8.58060E-12 9.68710E-12
 -1        40-2.48692E+05-1.50033E+05-7.97450E+04-5.88474E+02 2.26744E-11-1.35791E-11
 -1        41-1.84425E+05-1.18042E+05-6.04934E+04-2.01816E+03 2.34783E-11-2.12758E-12
 -1        42-1.32649E+05-1.00073E+05-4.65443E+04-1.63655E+03-3.57973E-12-1.82274E-11
 -1        43-1.19442E+05-1.01099E+05-4.41083E+04 8.65307E+02 7.34004E-12-6.10770E-12
 -1        44-1.11144E+05-1.01004E+05-4.24295E+04 2.81471E+02 3.34900E-11-6.71033E-12
 -1        45-1.39873E+05-1.11820E+05-5.03387E+04-4.61384E+03-4.36055E-12-6.28852E-12
 -1        46-1.24582E+05-9.79212E+04-4.45006E+04 5.70927E+02 3.19067E-11-3.77748E-12
 -1        47-1.15637E+05-1.01460E+05-4.34193E+04 5.17459E+01 1.63728E-11-1.09052E-11
 -1        48-1.06380E+05-1.01297E+05-4.15354E+04 2.01967E+02 1.98075E-11-8.95850E-12
 -1        49-1.01324E+05-1.00757E+05-4.04162E+04 9.84848E+01-5.58700E-12-3.84286E-12
 -1        50-1.01904E+05-1.03397E+05-4.10601E+04-4.58644E+02 3.73955E-12 1.90569E-12
 -1        51-1.02694E+05-1.05065E+05-4.15518E+04-6.27420E+02-3.61600E-11-2.14633E-12
 -1        52-1.01218E+05-1.00809E+05-4.04052E+04 7.12379E+01-2.27166E-11-7.23066E-12
 -1        53-1.01357E+05-1.02068E+05-4.06851E+04-1.97386E+02 1.84473E-11-5.84287E-12
 -1        54-1.01705E+05-1.04391E+05-4.12192E+04-8.25810E+02 2.52603E-11 1.61956E-11
 -1        55-1.02491E+05-1.03757E+05-4.12497E+04-2.88208E+02-2.18662E-11 4.42454E-12
 -1        56-1.51607E+05-1.03799E+05-5.10811E+04 9.77813E+03-4.98224E-12 7.99433E-13
 -1        57-1.91808E+05-1.08278E+05-6.00173E+04 2.42147E+04-1.02061E-11 4.91531E-12
 -1        58-2.45233E+05-1.18361E+05-7.27188E+04 4.70127E+04 1.80187E-12-4.16180E-12
 -1        59-3.09103E+05-1.32048E+05-8.82302E+04 8.17844E+04-6.78875E-12 1.32108E-12
 -1        60-3.79648E+05-1.53836E+05-1.06697E+05 1.22459E+05 2.21236E-11 5.39644E-12
 -1        61-4.47373E+05-1.87903E+05-1.27055E+05 1.73264E+05-1.58673E-12 5.67344E-12
 -1        62-5.07770E+05-2.30396E+05-1.47633E+05 2.27382E+05-4.77631E-12 1.42493E-12
 -1        63-5.51246E+05-2.79075E+05-1.66064E+05 2.78935E+05 2.75525E-12 2.36001E-12
 -1        64-5.63671E+05-3.25150E+05-1.77764E+05 3.15725E+05-1.20500E-12 3.16325E-12
 -1        65-5.34663E+05-3.54151E+05-1.77763E+05 3.27393E+05-8.47180E-13-3.78918E-12
 -1        66-4.68700E+05-3.51975E+05-1.64135E+05 3.01630E+05 7.62519E-13 4.63872E-12
 -1        67-1.27850E+05-1.02334E+05-4.60367E+04 5.30987E+03-5.90897E-11-1.46494E-11
 -1        68-1.70283E+05-1.05151E+05-5.50866E+04 1.79607E+04 4.18638E-11-7.17860E-12
 -1        69-2.16541E+05-1.11215E+05-6.55512E+04 3.52995E+04 3.18810E-11-8.23286E-13
 -1        70-2.77525E+05-1.25449E+05-8.05948E+04 6.39426E+04-2.08144E-12-1.51304E-12
 -1        71-3.44649E+05-1.38151E+05-9.65600E+04 1.00724E+05-6.46048E-12 1.19503E-12
 -1        72-4.14672E+05-1.67365E+05-1.16407E+05 1.47571E+05-4.69286E-13 2.60986E-12
 -1        73-4.79221E+05-2.05886E+05-1.37021E+05 2.00142E+05-1.03101E-11 5.67909E-12
 -1        74-5.31571E+05-2.51551E+05-1.56624E+05 2.53412E+05-1.01735E-12 3.37486E-13
 -1        75-5.58639E+05-3.00383E+05-1.71804E+05 2.98479E+05-7.42820E-12 1.25285E-11
 -1        76-5.50696E+05-3.41649E+05-1.78469E+05 3.23632E+05 9.47774E-12-7.50862E-12
 -1        77-5.10212E+05-3.61050E+05-1.74252E+05 3.19464E+05 1.63336E-12 8.48795E-12
 -1        78-4.46047E+05-3.41315E+05-1.57472E+05 2.94330E+05 1.85920E-12 5.19249E-13
 -1        79-2.37115E+05-3.89940E+05-1.25411E+05 2.03024E+05-5.88348E-13 1.62782E-12
 -1        80-1.23048E+05-2.61960E+05-7.70016E+04 6.30185E+04 8.88828E-14 6.41691E-13
 -1        81-1.01174E+05-1.45964E+05-4.94277E+04-7.53838E+02 7.98209E-14 3.60302E-13
 -1        82-3.58808E+05-4.40554E+05-1.59872E+05 2.73266E+05 2.02524E-12-1.61474E-12
 -1        83-1.62002E+05-3.31866E+05-9.87735E+04 1.26654E+05 2.41886E-14 5.02070E-13
 -1        84-9.80813E+04-2.04520E+05-6.05203E+04 2.57515E+04 2.84974E-15-4.89640E-13
 -1        85-9.75818E+04-1.20214E+05-4.35592E+04-9.75112E+02-1.80255E-13 3.02511E-14
 -1        86-1.19678E+05-1.14154E+05-4.67664E+04 1.42992E+04 8.41523E-14 2.17429E-13
 -1        87-1.22296E+05-1.20221E+05-4.85035E+04 1.77255E+04 5.47190E-14 1.27248E-13
 -1        88-1.10080E+05-1.10182E+05-4.40526E+04 7.19330E+03 3.15475E-14-2.78636E-14
 -1        89-1.15016E+05-1.12182E+05-4.54395E+04 6.61095E+03-8.16357E-14-8.21672E-14
 -1        90-1.24579E+05-1.17472E+05-4.84103E+04 1.61485E+04-2.80596E-14-7.77802E-14
 -1        91-1.15271E+05-1.14734E+05-4.60010E+04 1.41747E+04-7.22948E-14 8.64928E-14
 -1        92-1.02927E+05-1.02717E+05-4.11288E+04 3.06556E+03-6.26269E-14-8.35637E-14
 -1        93-1.01059E+05-9.92909E+04-4.00700E+04-5.44237E+03-2.36723E-14-3.85122E-14
 -1        94-8.81486E+04-9.92278E+04-3.74753E+04-1.07649E+04-1.11207E-14-6.29749E-15
 -1        95-5.18267E+04-9.31262E+04-2.89906E+04-2.91441E+04-3.64839E-14-3.19473E-15
 -1        96-1.01081E+05-1.00410E+05-4.02982E+04-3.90538E+03-1.50358E-14 3.01294E-14
 -1        97-9.76772E+04-1.00983E+05-3.97321E+04-8.10731E+03 4.45804E-14 5.97729E-14
 -1        98-7.58982E+04-9.56553E+04-3.43107E+04-1.84735E+04-2.84688E-14 1.85271E-14
 -1        99-2.65936E+04-7.73919E+04-2.07971E+04-4.93942E+04-6.00776E-15-1.16084E-14
 -1       100-2.17722E+05-5.44458E+04-5.44335E+04 2.61796E+04 4.77055E-15 9.46120E-15
 -1       101-2.70774E+05-6.88964E+04-6.79340E+04 7.44916E+04-5.26547E-14-4.34501E-14
 -1       102-4.00233E+05-1.00314E+05-1.00109E+05 1.40596E+05 1.31890E-15-4.34217E-14
 -1       103-5.55179E+05-1.33695E+05-1.37775E+05 1.72923E+05-1.29092E-13 1.45711E-14
 -1       104-6.48331E+05-1.62306E+05-1.62127E+05 1.76134E+05-2.99330E-13 2.75586E-13
 -1       105-6.83416E+05-1.70993E+05-1.70882E+05 1.71593E+05 4.92760E-13 9.04539E-14
 -1       106-6.73029E+05-1.68348E+05-1.68275E+05 1.66125E+05-2.05810E-13 5.21770E-13
 -1       107-6.26800E+05-1.56769E+05-1.56714E+05 1.63919E+05 1.31231E-14 7.93468E-14
 -1       108-5.48305E+05-1.37030E+05-1.37067E+05 1.70958E+05-2.38594E-13 1.35911E-13
 -1       109-4.45869E+05-1.09751E+05-1.11124E+05 2.00827E+05 1.58267E-14 1.34249E-13
 -1       110-3.45569E+05-8.58141E+04-8.62766E+04 2.50632E+05 6.83345E-14-3.54597E-15
 -1       111-1.69392E+05-4.21385E+04-4.23060E+04-6.41880E+03-1.48110E-15 9.07298E-15
 -1       112-2.46383E+05-6.15607E+04-6.15886E+04 5.07440E+04-9.24739E-15-1.08597E-15
 -1       113-3.34104E+05-8.32431E+04-8.34695E+04 1.10735E+05 8.22711E-14 6.53593E-14
 -1       114-4.79921E+05-1.19977E+05-1.19980E+05 1.60927E+05 3.37383E-14 9.05396E-14
 -1       115-6.07545E+05-1.52123E+05-1.51934E+05 1.74117E+05 2.56401E-14-2.84774E-13
 -1       116-6.71641E+05-1.68236E+05-1.67975E+05 1.73787E+05 2.65832E-13-3.94886E-13
 -1       117-6.83185E+05-1.70936E+05-1.70824E+05 1.69548E+05-5.06580E-13-6.60894E-13
 -1       118-6.54043E+05-1.63611E+05-1.63531E+05 1.65010E+05-6.77014E-14 1.62550E-13
 -1       119-5.90932E+05-1.47780E+05-1.47742E+05 1.66448E+05 7.32190E-14 2.22040E-13
 -1       120-4.97641E+05-1.24262E+05-1.24381E+05 1.83827E+05 2.97698E-13 5.80100E-14
 -1       121-4.13330E+05-1.03961E+05-1.03458E+05 2.16053E+05 5.74676E-14-3.71898E-15
 -1       122-1.47065E+05-3.79527E+04-3.70035E+04 3.42806E+05-1.28616E-13-1.85800E-14
 -1       123-1.65011E+05-8.00837E+04-4.90189E+04 9.54082E+03-4.62910E-15 5.14435E-15
 -1       124-4.50094E+05-2.36577E+05-1.37334E+05 1.65414E+05-2.05488E-12-2.59575E-12
 -1       125-1.91042E+05-2.66735E+05-9.15554E+04 2.43869E+05-1.41996E-12 2.01353E-13
 -1       126-1.37112E+05-8.93903E+04-4.53004E+04 3.22125E+03 2.40867E-14-6.82815E-14
 -1       127-4.13619E+05-1.94317E+05-1.21587E+05 1.60175E+05 2.29836E-13-1.76572E-12
 -1       128-1.63609E+05-1.13320E+05-5.53858E+04-2.55360E+02-2.36691E-12 3.07986E-12
 -1       129-2.03986E+05-1.25715E+05-6.59401E+04 1.12264E+04-8.20119E-12 6.05801E-12
 -1       130-5.58498E+05-2.17106E+05-1.55121E+05 1.91236E+05-6.23666E-13 3.83031E-12
 -1       131-3.58050E+05-2.75650E+05-1.26740E+05 1.25824E+05-2.62764E-12-1.71923E-12
 -1       132-3.71349E+05-2.58603E+05-1.25990E+05 1.40902E+05 6.73737E-13 3.31595E-12
 -1       133-2.47420E+05-2.39301E+05-9.73441E+04 1.65394E+05-7.85016E-13-1.43986E-12
 -1       134-1.53282E+05-1.09350E+05-5.25265E+04 2.15246E+03 2.49650E-12-9.35226E-12
 -1       135-5.37619E+05-1.77497E+05-1.43023E+05 1.70617E+05-1.12574E-13-3.82774E-13
 -1       136-5.20186E+05-2.33793E+05-1.50796E+05 1.89011E+05 3.03648E-12 1.57907E-12
 -1       137-4.66688E+05-2.74765E+05-1.48291E+05 1.90874E+05-1.63280E-12-2.94391E-13
 -1       138-1.31246E+05-1.05640E+05-4.73772E+04-2.06116E+03-1.03513E-11-5.78480E-12
 -1       139-3.12792E+05-2.27344E+05-1.08027E+05 8.40450E+04 8.15338E-13 1.25289E-12
 -1       140-3.02869E+05-2.84287E+05-1.17431E+05 1.13916E+05-1.13657E-12 2.26910E-12
 -1       141-1.70871E+05-1.19640E+05-5.81023E+04 3.43073E+04 6.52449E-14-3.54616E-14
 -1       142-2.71465E+05-2.21409E+05-9.85750E+04 1.36629E+05 1.84958E-12 2.23161E-13
 -1       143-2.16028E+05-7.43188E+04-5.80693E+04 3.76815E+04-2.36458E-14-6.12499E-14
 -1       144-1.48330E+05-6.52410E+04-4.27143E+04-5.92172E+03-5.72779E-15-1.20785E-14
 -1       145-2.19832E+05-1.01901E+05-6.43467E+04 5.53753E+04 6.16912E-14 1.61796E-13
 -1       146-1.70964E+05-9.72790E+04-5.36486E+04 2.23419E+04-1.12396E-14 7.72476E-14
 -1       147-2.62643E+05-1.61041E+05-8.47368E+04 4.96651E+04-2.36578E-11 1.38659E-12
 -1       148-2.36527E+05-1.48512E+05-7.70076E+04 1.06769E+04-5.63311E-12 4.44623E-14
 -1       149-2.00101E+05-1.17263E+05-6.34728E+04 1.88239E+04-8.95555E-12-3.08069E-12
 -1       150-2.37241E+05-1.36824E+05-7.48130E+04 3.37627E+04 5.10736E-12 3.54432E-12
 -1       151-6.16338E+05-1.70226E+05-1.57313E+05 1.72289E+05-4.15779E-13-7.20739E-13
 -1       152-5.81046E+05-1.57507E+05-1.47711E+05 1.70746E+05-9.45891E-14 2.47101E-13
 -1       153-5.59902E+05-1.90027E+05-1.49986E+05 1.75354E+05 7.44581E-14 4.89228E-13
 -1       154-6.15068E+05-1.62484E+05-1.55510E+05 1.70327E+05 1.77036E-13-7.73775E-13
 -1       155-3.79691E+05-1.75675E+05-1.11073E+05 1.53919E+05-4.45695E-13-3.89145E-13
 -1       156-5.35070E+05-1.69726E+05-1.40959E+05 1.66730E+05-3.41427E-13 5.23667E-13
 -1       157-4.65416E+05-3.08308E+05-1.54745E+05 2.16768E+05 1.55682E-12-5.11381E-13
 -1       158-4.37279E+05-2.24956E+05-1.32447E+05 1.77972E+05-9.06543E-13 4.53542E-13
 -1       159-5.54278E+05-2.25980E+05-1.56052E+05 1.94674E+05-1.48531E-13 1.97025E-12
 -1       160-5.31580E+05-2.80598E+05-1.62436E+05 2.36815E+05-1.64201E-12-2.72152E-12
 -1       161-5.13348E+05-2.85893E+05-1.59848E+05 2.44243E+05-1.72063E-12-1.29574E-12
 -1       162-3.34625E+05-2.54572E+05-1.17839E+05 1.05647E+05 4.27124E-12-1.42708E-12
 -1       163-3.03562E+05-2.84297E+05-1.17572E+05 6.59538E+04 7.59335E-12 2.60957E-12
 -1       164-2.90579E+05-2.30307E+05-1.04177E+05 4.58994E+04 3.97898E-12-3.11920E-12
 -1       165-2.97653E+05-2.59774E+05-1.11485E+05 5.50992E+04 7.52642E-12 4.72360E-12
 -1       166-5.17662E+05-2.50202E+05-1.53573E+05 1.98146E+05-9.67859E-13-5.36569E-13
 -1       167-4.90950E+05-2.05198E+05-1.39230E+05 1.69148E+05 4.09299E-13 1.78651E-12
 -1       168-4.56593E+05-2.56089E+05-1.42536E+05 1.74194E+05-5.56141E-13-1.62143E-13
 -1       169-5.06745E+05-2.23698E+05-1.46089E+05 1.77763E+05-1.82579E-12 2.58595E-12
 -1       170-1.42129E+05-1.67452E+05-6.19161E+04 4.03158E+04-1.71289E-14-5.64946E-14
 -1       171-2.66418E+05-1.52033E+05-8.36900E+04 1.00946E+05-1.29540E-13 1.67683E-13
 -1       172-4.91509E+05-2.91973E+05-1.56696E+05 2.28351E+05 3.57584E-12 2.76238E-12
 -1       173-4.09399E+05-2.80452E+05-1.37970E+05 1.62706E+05-8.04568E-12-2.70649E-12
 -1       174-3.96021E+05-2.48993E+05-1.29003E+05 1.59521E+05-1.43346E-12-2.14862E-12
 -1       175-4.44960E+05-2.72908E+05-1.43574E+05 1.95879E+05 8.10509E-12 2.26175E-12
 -1       176-4.12427E+05-2.45249E+05-1.31535E+05 1.55056E+05 1.14343E-12 2.88634E-12
 -1       177-4.82635E+05-1.83858E+05-1.33298E+05 1.68118E+05 1.32593E-13 8.72732E-14
 -1       178-3.90244E+05-2.25602E+05-1.23169E+05 1.53091E+05-6.56517E-14-8.13449E-13
 -1       179-4.44500E+05-2.13134E+05-1.31527E+05 1.62746E+05 3.02325E-12-1.02651E-12
 -1       180-3.59927E+05-2.80837E+05-1.28153E+05 1.26225E+05-7.43558E-12 5.21019E-13
 -1       181-4.07306E+05-2.69489E+05-1.35359E+05 1.54596E+05 6.96063E-13 4.26743E-12
 -1       182-3.21562E+05-1.85943E+05-1.01501E+05 9.75114E+04-1.05703E-11 4.94974E-12
 -1       183-2.89167E+05-1.98018E+05-9.74370E+04 5.56461E+04-1.46931E-11-1.31689E-12
 -1       184-4.12590E+05-1.74522E+05-1.17422E+05 1.79834E+05-1.25717E-12 9.39675E-13
 -1       185-5.10914E+05-1.56492E+05-1.33481E+05 1.73607E+05-1.29720E-13 6.05707E-13
 -1       186-1.27841E+05-1.02479E+05-4.60639E+04-1.68462E+03 2.25504E-12 7.89951E-14
 -1       187-1.47160E+05-1.09958E+05-5.14235E+04-1.46134E+03-5.51783E-12-2.94372E-13
 -1       188-1.55445E+05-1.12568E+05-5.36026E+04-6.11188E+02-4.74327E-12-8.77565E-13
 -1       189-1.41062E+05-1.10811E+05-5.03746E+04-3.74206E+03 4.59412E-12 4.46614E-12
 -1       190-5.20245E+05-2.96608E+05-1.63371E+05 2.41844E+05-2.15044E-12-3.38174E-12
 -1       191-3.59679E+05-2.15883E+05-1.15112E+05 1.29238E+05 9.33097E-12 3.75356E-12
 -1       192-5.98218E+05-1.74486E+05-1.54541E+05 1.71193E+05-3.62934E-13-5.75645E-13
 -1       193-3.37843E+05-2.67294E+05-1.21027E+05 1.29331E+05 3.27152E-12 3.35365E-12
 -1       194-3.49414E+05-2.09977E+05-1.11878E+05 1.49801E+05 1.32374E-12 2.67020E-13
 -1       195-2.89511E+05-2.61100E+05-1.10122E+05 1.28203E+05 2.42152E-12 1.01859E-12
 -1       196-3.43098E+05-2.39409E+05-1.16501E+05 1.43084E+05 4.81000E-13 7.09656E-13
 -1       197-2.74077E+05-3.14393E+05-1.17694E+05 4.21289E+04-5.31830E-13-5.11607E-13
 -1       198-3.13261E+05-2.90823E+05-1.20817E+05 9.21053E+04 5.13379E-12 3.36770E-13
 -1       199-3.40284E+05-1.82021E+05-1.04461E+05 2.07725E+05 5.94225E-14 1.70297E-13
 -1       200-2.50856E+05-2.25653E+05-9.53018E+04 1.36259E+05-2.22618E-12-1.26813E-12
 -1       201-3.34288E+05-2.05746E+05-1.08007E+05 1.63189E+05-3.17699E-13 3.34729E-14
 -1       202-1.45876E+05-1.12145E+05-5.16041E+04 1.74623E+04 5.99879E-15-1.44248E-13
 -1       203-1.30108E+05-1.32901E+05-5.26017E+04 1.58947E+04 3.45570E-14 3.89317E-13
 -1       204-1.89325E+05-2.63781E+05-9.06213E+04 1.66646E+05 6.57593E-13 3.93632E-13
 -1       205-3.27115E+05-1.44572E+05-9.43373E+04 2.40861E+05-2.50329E-14-1.51131E-13
 -1       206-1.85281E+05-2.99464E+05-9.69491E+04 1.66453E+05 1.93582E-12-1.12095E-13
 -1       207-2.35034E+05-2.40206E+05-9.50481E+04 2.10914E+05 1.23112E-12 4.89045E-13
 -1       208-1.51226E+05-8.41597E+04-4.70771E+04 6.48508E+03 1.92017E-15 5.28028E-14
 -1       209-1.26378E+05-1.06837E+05-4.66431E+04 1.12710E+04-1.09798E-14-7.77263E-14
 -1       210-1.52156E+05-9.86882E+04-5.01688E+04 1.37114E+04-1.93601E-14-9.47524E-14
 -1       211-2.03501E+05-2.25124E+05-8.57250E+04 1.31749E+05 3.77347E-12-5.36393E-13
 -1       212-1.43733E+05-2.41260E+05-7.69986E+04 1.42062E+05 8.63390E-13 2.37279E-13
 -1       213-1.57812E+05-1.10791E+05-5.37206E+04 1.07302E+03 5.12356E-12-9.68912E-12
 -1       214-1.74578E+05-1.10109E+05-5.69375E+04 1.20429E+04 3.61558E-12-2.25851E-12
 -1       215-1.84917E+05-1.18738E+05-6.07309E+04 3.65594E+03-2.56197E-11 1.27099E-12
 -1       216-1.79422E+05-1.14636E+05-5.88116E+04 7.68180E+03-5.98910E-13-6.64570E-12
 -1       217-1.16189E+05-1.03361E+05-4.39099E+04-1.20388E+03 8.25927E-12-3.73559E-12
 -1       218-1.28583E+05-1.06196E+05-4.69558E+04-7.75318E+02 2.30148E-11-2.05655E-12
 -1       219-1.37555E+05-1.07138E+05-4.89385E+04-1.31916E+03-1.26922E-11-1.81358E-12
 -1       220-2.33320E+05-3.25222E+05-1.11708E+05 7.30726E+04 3.89128E-12 6.90804E-13
 -1       221-1.14368E+05-1.02107E+05-4.32951E+04-3.70912E+02-5.41844E-12-4.24888E-12
 -1       222-1.41412E+05-1.06372E+05-4.95568E+04 2.63546E+03-5.06372E-12-1.64761E-12
 -1       223-9.64763E+04-3.35881E+05-8.64715E+04 2.30343E+05-2.15186E-12 4.42575E-14
 -1       224-1.42615E+05-1.09425E+05-5.04079E+04 3.48582E+05-2.01062E-13-5.67714E-14
 -1       225-1.97332E+05-3.62567E+05-1.11980E+05 1.43857E+05 2.96651E-13-2.14090E-15
 -1       226-2.01639E+05-1.26905E+05-6.57087E+04 6.40520E+02-2.28480E-12-2.72247E-12
 -1       227-1.17209E+05-8.35450E+04-4.01507E+04-1.01563E+04 2.48624E-14 4.18335E-14
 -1       228-1.15188E+05-9.82547E+04-4.26885E+04 9.13670E+01 2.27386E-14-5.00081E-14
 -1       229-1.28141E+05-7.13992E+04-3.99080E+04-1.21328E+04-8.08610E-15-6.60144E-15
 -1       230-1.96163E+05-5.92625E+04-5.10851E+04 1.71911E+04 7.45298E-15 5.08282E-14
 -1       231-2.00154E+05-9.04668E+04-5.81242E+04 3.76206E+04-4.19900E-14-2.61744E-14
 -1       232-2.38606E+05-1.26774E+05-7.30759E+04 4.16785E+04-3.58180E-11 2.58580E-12
 -1       233-2.17243E+05-1.26089E+05-6.86664E+04 2.61195E+04-9.96273E-12 3.77770E-12
 -1       234-1.96271E+05-1.12377E+05-6.17296E+04 2.18421E+04 1.77410E-11-2.94865E-12
 -1       235-2.82317E+05-1.46419E+05-8.57473E+04 6.64587E+04 3.89176E-12 5.23423E-12
 -1       236-2.51136E+05-1.49684E+05-8.01641E+04 4.15154E+04-8.80617E-12 4.95391E-12
 -1       237-2.60621E+05-1.64473E+05-8.50188E+04 2.44273E+04-1.75592E-11 2.27924E-12
 -1       238-2.53311E+05-1.58421E+05-8.23464E+04 5.45507E+03-1.02166E-11-4.70082E-12
 -1       239-2.32565E+05-1.42456E+05-7.50042E+04 2.17565E+04 2.86722E-11 1.29165E-11
 -1       240-2.20265E+05-1.37214E+05-7.14959E+04 1.13789E+04 1.24178E-11-1.40809E-12
 -1       241-2.01468E+05-1.22047E+05-6.47031E+04 1.51611E+04 1.84430E-11-5.70632E-13
 -1       242-5.84845E+05-1.89814E+05-1.54932E+05 1.81440E+05-1.10214E-12-9.21363E-13
 -1       243-6.20626E+05-1.67673E+05-1.57660E+05 1.71780E+05 1.65475E-13 1.99354E-13
 -1       244-5.85896E+05-1.73444E+05-1.51868E+05 1.72339E+05-1.57699E-12-1.14062E-12
 -1       245-5.61897E+05-2.03157E+05-1.53011E+05 1.82955E+05 1.76659E-12-1.80201E-14
 -1       246-6.48375E+05-1.63246E+05-1.62324E+05 1.72294E+05-1.06325E-12 1.18203E-12
 -1       247-6.42862E+05-1.59497E+05-1.60472E+05 1.68551E+05 4.12356E-13 2.98056E-14
 -1       248-6.03024E+05-1.53846E+05-1.51374E+05 1.67352E+05 3.16519E-13 2.47478E-13
 -1       249-6.02174E+05-1.61379E+05-1.52711E+05 1.70675E+05-5.37790E-13-9.76706E-13
 -1       250-5.58559E+05-1.65477E+05-1.44807E+05 1.69900E+05 1.63915E-12 2.74292E-13
 -1       251-5.51466E+05-1.84776E+05-1.47248E+05 1.73289E+05-2.63268E-13-6.21352E-13
 -1       252-3.45200E+05-3.00775E+05-1.29195E+05 1.90582E+05-5.79722E-13 3.45865E-13
 -1       253-4.52064E+05-2.72657E+05-1.44944E+05 1.96679E+05 6.72866E-13 1.83380E-12
 -1       254-4.50003E+05-3.39150E+05-1.57830E+05 2.56737E+05 2.12590E-12 2.42765E-12
 -1       255-2.60156E+05-2.28279E+05-9.76870E+04 1.19646E+05-1.66968E-13 5.43300E-14
 -1       256-4.02461E+05-2.00999E+05-1.20692E+05 1.64974E+05-6.13054E-14 4.34932E-13
 -1       257-4.71871E+05-1.53036E+05-1.24981E+05 1.62193E+05-6.26147E-14-1.09411E-13
 -1       258-5.41733E+05-1.48194E+05-1.37985E+05 1.70275E+05-4.39146E-14-7.39974E-13
 -1       259-4.82469E+05-1.93491E+05-1.35192E+05 1.72402E+05-8.45090E-13-1.24768E-13
 -1       260-5.26493E+05-2.01910E+05-1.45681E+05 1.77475E+05 2.29645E-12 1.35299E-12
 -1       261-4.91167E+05-2.61324E+05-1.50498E+05 2.01161E+05-1.78339E-13 1.70944E-13
 -1       262-4.88533E+05-3.14508E+05-1.60608E+05 2.71409E+05-1.34316E-12-3.98979E-12
 -1       263-5.23931E+05-2.82332E+05-1.61253E+05 2.39649E+05 1.90716E-13 2.62239E-13
 -1       264-5.27722E+05-3.11397E+05-1.67824E+05 2.77767E+05 3.49663E-12 5.48774E-12
 -1       265-4.89246E+05-2.92904E+05-1.56430E+05 2.32799E+05-8.08738E-13-3.38255E-13
 -1       266-5.39846E+05-2.31203E+05-1.54210E+05 1.92283E+05 2.25856E-12 7.58548E-13
 -1       267-5.31394E+05-2.53556E+05-1.56990E+05 2.17017E+05 4.13479E-13-5.51669E-12
 -1       268-5.59368E+05-2.22232E+05-1.56320E+05 1.93219E+05 2.83962E-13 2.57118E-12
 -1       269-5.41886E+05-2.44728E+05-1.57323E+05 2.12390E+05 2.35707E-12 7.56369E-13
 -1       270-3.23679E+05-2.39328E+05-1.12601E+05 9.43547E+04 8.82836E-13 2.94839E-12
 -1       271-3.15200E+05-2.56547E+05-1.14349E+05 8.04109E+04 3.87068E-12-4.43212E-12
 -1       272-2.93603E+05-2.44984E+05-1.07717E+05 4.99709E+04-3.90298E-12-7.68032E-13
 -1       273-2.99768E+05-2.28368E+05-1.05627E+05 6.47543E+04-9.08627E-12-5.54669E-12
 -1       274-3.46589E+05-2.64872E+05-1.22292E+05 1.15687E+05 2.45143E-13-1.64503E-12
 -1       275-3.29359E+05-2.78309E+05-1.21534E+05 9.62661E+04 8.08644E-14 8.37907E-12
 -1       276-3.01419E+05-2.73272E+05-1.14938E+05 6.00305E+04-1.03643E-11-2.68653E-12
 -1       277-2.83255E+05-2.90159E+05-1.14683E+05 3.30970E+04-1.30370E-12-9.70584E-13
 -1       278-2.81056E+05-2.61709E+05-1.08553E+05 2.76343E+04 1.59537E-11 7.86100E-13
 -1       279-2.80442E+05-2.30852E+05-1.02259E+05 2.33719E+04 6.16720E-12 2.51526E-12
 -1       280-4.90909E+05-2.62477E+05-1.50677E+05 1.95623E+05-4.22750E-12-5.70217E-12
 -1       281-5.11984E+05-2.35207E+05-1.49438E+05 1.87340E+05 8.90200E-13-2.30113E-12
 -1       282-4.80972E+05-2.40209E+05-1.44236E+05 1.76897E+05-1.63964E-12-1.76731E-12
 -1       283-4.60406E+05-2.63572E+05-1.44796E+05 1.81932E+05-1.22679E-12 5.13515E-12
 -1       284-5.38165E+05-2.34510E+05-1.54535E+05 1.95825E+05 1.20803E-12 2.75423E-12
 -1       285-5.33091E+05-2.06720E+05-1.47962E+05 1.77608E+05 3.66483E-12 1.67588E-12
 -1       286-5.14205E+05-1.91016E+05-1.41044E+05 1.70064E+05-4.18236E-12-4.52039E-13
 -1       287-4.99502E+05-2.14406E+05-1.42782E+05 1.73212E+05 1.73527E-12 2.24037E-12
 -1       288-4.70680E+05-2.21634E+05-1.38463E+05 1.67553E+05-1.47228E-12-4.25242E-13
 -1       289-4.53141E+05-2.45815E+05-1.39791E+05 1.69324E+05-4.62801E-12 2.80145E-12
 -1       290-3.20374E+05-1.63598E+05-9.67944E+04 1.28684E+05-2.77119E-13-6.49138E-15
 -1       291-3.38750E+05-1.23373E+05-9.24246E+04 1.20727E+05-1.33486E-13 1.31315E-13
 -1       292-1.36296E+05-2.11711E+05-6.96015E+04 4.95180E+04 3.95707E-13 6.62971E-13
 -1       293-2.07003E+05-1.69073E+05-7.52153E+04 7.67954E+04 2.81375E-13 2.94498E-14
 -1       294-1.59963E+05-1.45682E+05-6.11290E+04 3.86539E+04-2.86115E-13-1.19790E-13
 -1       295-1.93176E+05-1.12597E+05-6.11545E+04 4.52170E+04-1.87696E-13 2.68353E-13
 -1       296-2.38305E+05-1.25272E+05-7.27155E+04 7.81638E+04-4.65117E-15 1.14130E-13
 -1       297-2.50008E+05-8.71936E+04-6.74402E+04 6.76487E+04-5.62349E-15 9.22364E-14
 -1       298-4.75587E+05-2.53525E+05-1.45822E+05 2.12073E+05-3.61590E-12 7.34709E-12
 -1       299-4.20598E+05-2.58656E+05-1.35851E+05 1.77681E+05 3.05494E-12 3.00813E-12
 -1       300-4.23222E+05-2.22332E+05-1.29111E+05 1.68376E+05 4.96771E-12 3.85575E-12
 -1       301-5.17728E+05-2.84112E+05-1.60368E+05 2.51880E+05-4.69084E-13-8.68665E-13
 -1       302-4.68484E+05-2.79784E+05-1.49654E+05 2.12230E+05 5.33771E-12 3.41938E-12
 -1       303-4.76385E+05-2.80706E+05-1.51418E+05 2.07696E+05-2.50007E-12 9.82214E-13
 -1       304-4.37082E+05-2.75607E+05-1.42538E+05 1.77650E+05-7.42558E-13 2.67921E-12
 -1       305-4.26406E+05-2.76059E+05-1.40493E+05 1.78454E+05 7.59336E-12-6.64979E-12
 -1       306-3.82546E+05-2.77015E+05-1.31912E+05 1.44722E+05-2.31880E-12 2.36119E-12
 -1       307-3.77514E+05-2.63556E+05-1.28214E+05 1.42626E+05 8.09004E-12-6.67431E-12
 -1       308-3.92397E+05-2.51930E+05-1.28865E+05 1.48319E+05 2.25618E-12 3.70461E-12
 -1       309-4.28585E+05-2.29873E+05-1.31692E+05 1.58925E+05-3.14144E-12 7.37654E-13
 -1       310-4.18358E+05-2.19479E+05-1.27567E+05 1.57881E+05-2.19465E-12 1.10910E-12
 -1       311-3.81149E+05-2.43229E+05-1.24876E+05 1.46945E+05 3.10676E-12-4.54333E-13
 -1       312-4.32320E+05-2.41229E+05-1.34710E+05 1.60167E+05 5.33491E-12-2.71236E-12
 -1       313-4.69000E+05-2.09689E+05-1.35738E+05 1.65981E+05 3.80684E-12 1.05359E-12
 -1       314-5.12295E+05-1.81306E+05-1.38720E+05 1.69277E+05-1.15890E-12-7.13056E-13
 -1       315-4.63647E+05-1.97976E+05-1.32325E+05 1.65170E+05 5.68479E-12-8.80392E-13
 -1       316-4.50592E+05-1.89369E+05-1.27992E+05 1.64282E+05-1.07997E-12-9.88438E-13
 -1       317-4.01737E+05-2.08921E+05-1.22132E+05 1.56612E+05-5.33621E-13 2.91455E-12
 -1       318-4.09824E+05-2.58814E+05-1.33727E+05 1.54080E+05-8.25967E-12-3.58091E-12
 -1       319-4.31432E+05-2.61735E+05-1.38633E+05 1.65031E+05 7.72521E-12-2.07084E-12
 -1       320-3.65703E+05-2.73247E+05-1.27790E+05 1.32578E+05 5.20313E-12 5.82457E-12
 -1       321-3.82434E+05-2.74536E+05-1.31394E+05 1.41354E+05 3.76529E-12-5.76108E-12
 -1       322-3.59679E+05-2.80120E+05-1.27960E+05 1.25299E+05-5.90890E-12-8.48258E-13
 -1       323-4.08090E+05-2.75417E+05-1.36701E+05 1.58030E+05-1.40454E-12-6.93552E-13
 -1       324-3.19982E+05-1.62048E+05-9.64059E+04 9.18835E+04-8.01800E-13 8.48455E-13
 -1       325-2.99297E+05-1.91098E+05-9.80791E+04 7.63539E+04-2.67665E-12 3.61660E-12
 -1       326-2.78571E+05-1.80802E+05-9.18746E+04 5.33932E+04-1.44701E-11-1.19586E-11
 -1       327-3.19012E+05-2.09254E+05-1.05653E+05 9.23098E+04-1.03587E-11-2.22314E-12
 -1       328-2.89923E+05-2.15078E+05-1.01000E+05 5.11918E+04-1.87033E-12-2.77223E-12
 -1       329-2.79855E+05-1.98201E+05-9.56111E+04 2.86097E+04-3.95260E-13-3.65718E-12
 -1       330-4.27539E+05-1.48330E+05-1.15174E+05 1.91763E+05-2.19249E-13 2.66357E-13
 -1       331-4.64851E+05-1.63982E+05-1.25767E+05 1.75393E+05-4.33245E-15 4.12582E-13
 -1       332-5.29117E+05-1.48582E+05-1.35540E+05 1.73238E+05 2.52400E-14 3.47553E-14
 -1       333-4.11783E+05-1.83561E+05-1.19069E+05 1.67563E+05-1.77489E-12 1.13721E-12
 -1       334-4.96345E+05-1.69534E+05-1.33176E+05 1.69166E+05-7.87641E-13-1.18259E-12
 -1       335-5.49540E+05-1.58722E+05-1.41652E+05 1.71661E+05 3.52297E-13 1.48193E-13
 -1       336-1.37757E+05-1.06068E+05-4.87649E+04-2.80389E+03 7.41432E-12 7.91761E-13
 -1       337-1.47233E+05-1.11129E+05-5.16724E+04-1.99441E+03 2.08739E-11-1.07779E-11
 -1       338-1.51195E+05-1.15258E+05-5.32906E+04-1.17438E+03 2.86750E-12-6.62783E-13
 -1       339-1.25008E+05-1.02142E+05-4.54300E+04-9.44005E+02 4.94474E-13-7.04634E-12
 -1       340-1.34288E+05-1.05763E+05-4.80103E+04-2.41592E+03-2.28681E-11 4.77420E-14
 -1       341-1.29615E+05-1.04653E+05-4.68536E+04-2.06543E+03 8.20799E-12 2.03674E-12
 -1       342-1.39508E+05-1.07987E+05-4.94991E+04-2.05169E+03-1.02822E-11-2.45651E-12
 -1       343-1.44214E+05-1.09594E+05-5.07617E+04-2.33475E+03 8.32976E-12 1.14439E-12
 -1       344-1.54941E+05-1.11972E+05-5.33825E+04-6.98920E+02 1.12144E-11 4.90406E-12
 -1       345-1.58723E+05-1.12164E+05-5.41775E+04-2.00962E+02 2.82568E-13 1.01141E-12
 -1       346-5.15362E+05-2.68802E+05-1.56833E+05 2.17290E+05-2.30935E-12 2.42540E-12
 -1       347-5.26096E+05-2.90177E+05-1.63255E+05 2.39880E+05-2.42245E-12-7.64695E-14
 -1       348-5.05614E+05-2.93152E+05-1.59753E+05 2.35484E+05-2.90187E-12-8.23145E-13
 -1       349-5.35590E+05-3.05812E+05-1.68280E+05 2.74907E+05 2.52386E-12-3.62496E-12
 -1       350-3.48849E+05-2.38225E+05-1.17415E+05 1.18264E+05 8.83139E-12 6.20907E-12
 -1       351-3.78349E+05-2.30185E+05-1.21707E+05 1.44133E+05 1.13765E-11-4.09705E-12
 -1       352-3.39930E+05-1.97224E+05-1.07431E+05 1.12282E+05 3.15171E-11 2.19941E-12
 -1       353-3.73303E+05-1.89875E+05-1.12636E+05 1.28786E+05 5.87654E-12-4.65837E-12
 -1       354-5.73388E+05-1.95854E+05-1.53848E+05 1.83825E+05 5.15662E-13-6.80050E-14
 -1       355-6.13082E+05-1.74809E+05-1.57578E+05 1.72104E+05-9.57214E-13 3.08563E-13
 -1       356-5.73956E+05-1.75112E+05-1.49814E+05 1.69325E+05-2.32910E-13 6.75667E-13
 -1       357-6.20890E+05-1.60327E+05-1.56243E+05 1.74598E+05 7.80016E-13-1.45897E-13
 -1       358-3.20883E+05-2.73907E+05-1.18958E+05 1.22236E+05-6.62419E-12-4.53191E-13
 -1       359-3.42029E+05-2.55776E+05-1.19561E+05 1.35395E+05-2.84402E-12 2.44101E-14
 -1       360-3.16812E+05-2.50269E+05-1.13416E+05 1.35371E+05 5.01080E-12-2.20426E-12
 -1       361-2.97371E+05-2.77688E+05-1.15012E+05 1.18792E+05-8.67916E-13 1.76367E-12
 -1       362-3.55390E+05-2.62706E+05-1.23619E+05 1.35319E+05 2.12925E-12-2.17156E-12
 -1       363-3.67124E+05-2.32701E+05-1.19965E+05 1.47894E+05 1.88458E-12 1.39528E-12
 -1       364-3.82171E+05-2.03165E+05-1.17067E+05 1.55168E+05-1.29793E-12 9.41941E-13
 -1       365-3.45433E+05-2.23769E+05-1.13840E+05 1.46366E+05-6.85884E-13-1.22032E-13
 -1       366-3.12077E+05-2.19393E+05-1.06294E+05 1.42409E+05-2.51072E-12-6.21946E-13
 -1       367-2.81703E+05-2.48473E+05-1.06035E+05 1.33506E+05 1.62849E-12-1.17718E-12
 -1       368-3.36156E+05-2.84755E+05-1.24182E+05 1.09170E+05 6.88109E-13-1.72594E-12
 -1       369-3.09481E+05-2.91216E+05-1.20139E+05 7.72797E+04 1.19315E-12-3.83552E-12
 -1       370-3.25513E+05-2.85073E+05-1.22117E+05 1.09702E+05 3.85372E-13 1.02648E-12
 -1       371-2.86232E+05-3.02065E+05-1.17659E+05 7.87783E+04-3.21112E-12 2.38070E-12
 -1       372-2.89256E+05-3.00280E+05-1.17907E+05 6.93158E+04-8.03582E-13-3.84259E-12
 -1       373-2.74008E+05-3.09388E+05-1.16679E+05 1.90536E+04 2.29349E-12 1.46439E-12
 -1       374-3.92843E+05-1.43796E+05-1.07328E+05 2.06929E+05-7.46655E-13 6.25463E-14
 -1       375-3.36135E+05-2.00942E+05-1.07415E+05 1.83332E+05 2.75862E-13 4.44096E-14
 -1       376-3.72263E+05-1.87340E+05-1.11920E+05 1.73522E+05-3.21646E-13 1.54876E-12
 -1       377-2.95056E+05-2.15098E+05-1.02031E+05 1.86489E+05-3.01854E-12 3.53171E-13
 -1       378-2.47049E+05-2.30305E+05-9.54708E+04 1.50121E+05 6.78319E-13 1.03007E-12
 -1       379-2.93122E+05-2.18193E+05-1.02263E+05 1.50462E+05 1.12889E-12-1.03608E-12
 -1       380-2.58365E+05-2.17576E+05-9.51881E+04 1.33074E+05-1.60985E-12 3.58387E-12
 -1       381-3.39526E+05-2.03005E+05-1.08506E+05 1.53699E+05 1.63386E-12-1.33215E-12
 -1       382-1.25202E+05-1.37444E+05-5.25292E+04 8.53375E+03-2.64388E-13-1.43954E-13
 -1       383-1.22086E+05-1.48509E+05-5.41190E+04 2.38759E+04 1.21299E-13 2.04666E-13
 -1       384-1.17203E+05-1.20895E+05-4.76196E+04 1.33810E+04 5.61790E-14-1.58188E-13
 -1       385-1.31070E+05-1.13455E+05-4.89049E+04 1.53154E+04-6.19608E-14-2.35403E-13
 -1       386-1.41040E+05-1.22450E+05-5.26980E+04 1.56266E+04-6.44181E-14-1.07758E-13
 -1       387-1.53214E+05-1.15188E+05-5.36803E+04 2.40742E+04-1.15618E-14 4.79217E-13
 -1       388-1.80599E+05-2.54474E+05-8.70145E+04 1.65044E+05-4.84677E-12 1.67456E-13
 -1       389-2.17494E+05-2.63154E+05-9.61296E+04 1.82923E+05 1.89412E-12-3.16574E-13
 -1       390-2.01088E+05-2.64256E+05-9.30687E+04 1.96928E+05 1.28802E-12 6.31987E-13
 -1       391-2.00248E+05-2.83989E+05-9.68473E+04 1.55469E+05-1.17315E-12-2.46056E-13
 -1       392-2.12187E+05-2.46237E+05-9.16849E+04 1.66473E+05 2.75085E-12-3.99404E-13
 -1       393-2.87630E+05-2.04266E+05-9.83792E+04 2.10700E+05 1.36749E-12 2.06081E-13
 -1       394-3.83815E+05-1.19373E+05-1.00637E+05 2.23725E+05 7.25914E-13 4.95398E-14
 -1       395-2.80559E+05-2.00417E+05-9.61951E+04 2.27492E+05 4.13909E-13-2.93867E-13
 -1       396-2.38848E+05-1.91488E+05-8.60671E+04 2.53653E+05-6.05687E-13-1.52361E-13
 -1       397-1.88509E+05-3.01926E+05-9.80870E+04 2.00263E+05 1.19389E-13 2.58819E-14
 -1       398-1.44176E+05-8.70079E+04-4.62367E+04 4.67947E+03 6.69091E-15-1.18663E-13
 -1       399-1.51555E+05-9.06960E+04-4.84501E+04 9.86883E+03-5.44451E-15 3.42470E-14
 -1       400-1.38521E+05-1.01944E+05-4.80930E+04 1.14850E+04-2.13993E-16-6.19618E-14
 -1       401-1.30777E+05-9.91003E+04-4.59755E+04 7.51636E+03 2.52031E-14 5.82171E-14
 -1       402-1.57455E+05-8.19905E+04-4.78892E+04 7.48962E+03-1.04417E-14 4.55103E-14
 -1       403-1.68285E+05-8.79581E+04-5.12486E+04 1.63752E+04 1.07597E-14-1.48639E-13
 -1       404-1.59985E+05-9.71581E+04-5.14286E+04 1.73842E+04 5.96455E-14-9.21344E-14
 -1       405-1.71385E+05-1.08490E+05-5.59751E+04 2.88084E+04-8.39687E-14-7.90790E-14
 -1       406-1.48934E+05-1.04836E+05-5.07541E+04 1.51039E+04 5.67971E-14 1.32715E-13
 -1       407-1.23183E+05-1.13868E+05-4.74101E+04 1.45375E+04-1.45016E-15-3.89845E-13
 -1       408-1.46487E+05-2.31292E+05-7.55558E+04 1.60027E+05 1.92152E-13 1.20905E-12
 -1       409-1.82309E+05-2.55740E+05-8.76098E+04 1.56425E+05 2.17463E-12-4.44059E-13
 -1       410-8.37462E+04-2.52849E+05-6.73190E+04 1.43293E+05 1.08994E-12-9.21439E-13
 -1       411-1.67954E+05-2.22369E+05-7.80646E+04 1.35060E+05-6.82265E-12-3.39533E-14
 -1       412-2.41646E+05-2.27225E+05-9.37744E+04 1.30708E+05 4.26199E-13 1.74017E-13
 -1       413-2.06362E+05-2.29832E+05-8.72389E+04 1.41177E+05 8.90851E-13-4.85997E-13
 -1       414-1.60330E+05-1.11896E+05-5.44453E+04 7.26807E+02-7.42513E-12-2.78130E-12
 -1       415-1.69131E+05-1.13098E+05-5.64458E+04 4.14078E+03 4.86888E-12 1.15342E-11
 -1       416-1.81947E+05-1.16937E+05-5.97768E+04 5.88373E+03-2.55592E-11-1.26716E-12
 -1       417-1.74119E+05-1.15491E+05-5.79221E+04 2.11833E+03 2.14981E-14-1.13396E-13
 -1       418-1.55221E+05-1.09597E+05-5.29635E+04 1.74689E+03-3.37462E-11 3.48598E-12
 -1       419-1.64344E+05-1.09928E+05-5.48545E+04 6.83961E+03-3.47884E-12-4.32533E-12
 -1       420-1.77056E+05-1.11925E+05-5.77962E+04 1.00564E+04-8.82219E-12 3.87262E-12
 -1       421-1.84104E+05-1.10107E+05-5.88422E+04 1.79380E+04-1.86927E-11-1.09500E-12
 -1       422-1.89406E+05-1.16053E+05-6.10918E+04 1.31420E+04 2.28977E-11-1.93848E-12
 -1       423-1.94675E+05-1.23022E+05-6.35395E+04 7.09343E+03 1.95289E-11 8.89961E-12
 -1       424-1.47738E+05-1.09262E+05-5.14001E+04-6.22745E+01-5.35730E-12-2.23145E-12
 -1       425-1.32925E+05-1.06214E+05-4.78277E+04-1.00280E+03-7.81254E-12-8.81209E-12
 -1       426-1.40654E+05-1.06473E+05-4.94256E+04 7.81664E+02-5.19057E-12 3.29279E-12
 -1       427-1.42430E+05-1.08619E+05-5.02097E+04-1.52939E+03-2.53903E-11-5.85180E-12
 -1       428-1.23643E+05-1.04352E+05-4.55991E+04-1.62503E+03 1.97047E-11-8.38849E-12
 -1       429-1.27056E+05-1.05544E+05-4.65199E+04-1.35948E+03 6.97622E-13 3.47610E-12
 -1       430-1.08820E+05-1.03089E+05-4.23819E+04-7.96404E+02-2.85346E-12-9.36682E-12
 -1       431-1.15158E+05-1.04121E+05-4.38558E+04-6.51081E+02 2.64116E-11-3.48022E-12
 -1       432-2.08161E+05-2.95662E+05-1.00765E+05 9.04251E+04-3.84458E-12 1.49522E-12
 -1       433-2.52746E+05-2.87810E+05-1.08111E+05 1.02810E+05 3.21322E-12-1.43701E-12
 -1       434-2.58680E+05-3.31027E+05-1.17941E+05 2.89799E+04 8.32029E-13 3.14313E-12
 -1       435-2.63645E+05-3.22383E+05-1.17206E+05 5.13440E+04 6.00617E-13-1.01798E-12
 -1       436-1.12775E+05-1.01511E+05-4.28573E+04 5.76755E+00 8.16803E-12 9.49415E-12
 -1       437-1.21126E+05-1.02270E+05-4.46791E+04-9.72919E+02 3.71262E-13-3.27076E-12
 -1       438-1.07820E+05-1.01462E+05-4.18565E+04-1.91192E+02 4.85204E-12 1.59140E-11
 -1       439-1.15337E+05-1.02909E+05-4.36492E+04-8.71957E+02 1.72900E-11-1.71600E-12
 -1       440-1.21360E+05-1.04144E+05-4.51008E+04 1.36731E+03 2.42102E-11 1.98962E-12
 -1       441-1.35253E+05-1.06790E+05-4.84087E+04 6.08195E+02-1.23600E-11 2.89291E-12
 -1       442-1.46880E+05-1.06046E+05-5.05852E+04 6.00637E+03 1.58569E-11 4.08559E-12
 -1       443-1.57351E+05-1.06170E+05-5.27043E+04 7.77936E+03-1.22412E-11 2.04792E-14
 -1       444-2.09755E+05-8.57982E+04-5.91106E+04 3.06099E+05-3.35446E-14 4.77823E-14
 -1       445-3.06526E+05-1.63621E+05-9.40295E+04 2.62326E+05-3.41865E-13 6.49444E-14
 -1       446-1.12329E+05-2.42560E+05-7.09778E+04 2.73117E+05 5.45164E-13 1.44664E-13
 -1       447-9.80517E+04-3.76984E+05-9.50072E+04 1.48841E+05-4.31914E-14 1.04511E-13
 -1       448-1.12497E+05-2.08767E+05-6.42529E+04 2.99555E+05 5.55170E-14 1.76253E-13
 -1       449-1.66789E+05-2.98931E+05-9.31440E+04 2.35861E+05 1.96572E-12-8.14573E-14
 -1       450-1.91268E+05-3.21745E+05-1.02603E+05 1.51433E+05-1.55901E-12-1.63655E-13
 -1       451-2.32272E+05-3.43422E+05-1.15139E+05 1.29368E+05-1.72554E-13 4.58188E-15
 -1       452-1.57211E+05-3.64895E+05-1.04421E+05 1.80622E+05-1.16008E-12-3.05226E-14
 -1       453-2.25508E+05-3.84972E+05-1.22096E+05 8.05054E+04-3.18265E-12 1.28391E-14
 -1       454-2.12471E+05-1.30501E+05-6.85944E+04-1.05549E+03 9.92237E-12 2.22209E-12
 -1       455-2.19051E+05-1.36988E+05-7.12077E+04 4.88287E+03 1.23205E-11 2.69991E-12
 -1       456-1.78682E+05-1.17011E+05-5.91386E+04-1.99207E+02-1.45974E-11 5.18324E-12
 -1       457-1.93441E+05-1.22272E+05-6.31425E+04 2.07874E+03-1.00932E-11-2.63882E-12
 -1       458-1.12438E+05-1.04593E+05-4.34062E+04 3.76533E+03-1.21868E-14 3.98042E-14
 -1       459-1.21611E+05-1.02198E+05-4.47618E+04 6.74119E+03 2.08720E-14 1.23400E-13
 -1       460-1.04531E+05-9.62385E+04-4.01539E+04-1.72394E+03-2.41292E-15 3.54153E-14
 -1       461-1.04787E+05-8.94783E+04-3.88530E+04-1.02348E+04 2.56995E-14 1.81753E-14
 -1       462-1.17434E+05-9.21938E+04-4.19256E+04-4.90567E+03-3.20194E-14-8.91259E-15
 -1       463-1.28815E+05-8.60100E+04-4.29649E+04-2.24230E+03 4.04414E-14 1.97332E-14
 -1       464-1.43440E+05-7.95398E+04-4.45960E+04-4.56221E+02-3.82191E-16-6.95242E-14
 -1       465-1.35744E+05-6.80527E+04-4.07594E+04-8.50857E+03-1.88170E-15 1.73785E-14
 -1       466-1.59327E+05-7.36801E+04-4.66014E+04 3.48854E+03 5.03896E-15 8.62171E-15
 -1       467-1.24553E+05-7.70066E+04-4.03120E+04-1.10192E+04-7.65052E-15 1.61719E-14
 -1       468-1.14508E+05-7.60244E+04-3.81065E+04-1.93190E+04-2.87294E-15-4.19392E-14
 -1       469-1.25479E+05-5.09824E+04-3.52923E+04-2.70210E+04-3.29938E-15-4.11991E-15
 -1       470-2.43509E+05-7.13123E+04-6.29642E+04 5.67413E+04 2.28478E-14 4.38085E-14
 -1       471-2.08752E+05-6.86497E+04-5.54803E+04 2.86794E+04-2.86595E-14 7.12717E-14
 -1       472-2.05503E+05-5.83710E+04-5.27748E+04 2.11346E+04 2.32840E-15 1.09496E-14
 -1       473-1.89212E+05-7.58046E+04-5.30032E+04 2.17407E+04-2.33089E-14-1.23337E-13
 -1       474-1.76574E+05-6.39621E+04-4.81073E+04 7.43495E+03-5.47358E-15-1.34705E-14
 -1       475-2.07829E+05-8.34055E+04-5.82470E+04 3.71273E+04 3.09086E-14 7.33464E-14
 -1       476-1.84313E+05-9.36303E+04-5.55886E+04 2.93267E+04-7.37621E-14-5.74646E-14
 -1       477-2.10100E+05-9.65341E+04-6.13269E+04 4.59741E+04 3.94931E-14-8.61120E-15
 -3
    1PSTEP                         3           1           1          
  100CL  101 1.000000000         475                     0    1           1
 -4  TOSTRAIN    6    1
 -5  EXX         1    4    1    1
 -5  EYY         1    4    2    2
 -5  EZZ         1    4    3    3
 -5  EXY         1    4    1    2
 -5  EYZ         1    4    2    3
 -5  EZX         1    4    3    1
 -1         1 2.05517E-05 4.69764E-09 0.00000E+00 2.29317E-05-3.19938E-24-1.93197E-24
 -1         2-9.36187E-06-9.44481E-06 0.00000E+00 8.38079E-07 1.04663E-22-9.11667E-24
 -1         3 4.62173E-06-9.63757E-06 0.00000E+00 6.17745E-06-1.04365E-22-5.47874E-23
 -1         4-3.79562E-06-2.61102E-06 0.00000E+00-8.50922E-08 3.09583E-22 2.07497E-23
 -1         5-2.43909E-06-2.42250E-06 0.00000E+00 2.65171E-09 2.67050E-22 7.85253E-22
 -1         6-2.50845E-06-2.43774E-06 0.00000E+00 4.51716E-09 1.85434E-22 2.00446E-22
 -1         8-1.17325E-05-8.76228E-06 0.00000E+00 1.25789E-05 6.49082E-23 2.83436E-23
 -1        10-2.56937E-06-2.48942E-06 0.00000E+00 1.10506E-07 4.66723E-24 4.85210E-24
 -1        11-2.45311E-06-2.40073E-06 0.00000E+00-1.09076E-07 9.39569E-25 1.07004E-24
 -1        12-1.86678E-06-8.84704E-07 0.00000E+00-2.06797E-06-1.45360E-25 3.95887E-25
 -1        13 1.68840E-05-1.34359E-05 0.00000E+00 9.55456E-06 9.19784E-24 1.27327E-23
 -1        14 1.50108E-06-1.16312E-05 0.00000E+00 1.43757E-06 5.24634E-23 6.56381E-24
 -1        15-5.20545E-06-1.13680E-05 0.00000E+00 9.78780E-07 1.85173E-23-9.53734E-25
 -1        16 2.14172E-05-6.23229E-06 0.00000E+00 1.77543E-05 1.69571E-23-1.19641E-23
 -1        17 7.01543E-06-1.37008E-05 0.00000E+00 3.86901E-06 2.30069E-24 8.89442E-24
 -1        18-2.35196E-06-1.18729E-05 0.00000E+00 1.24430E-06 1.58726E-23 9.44065E-24
 -1        19-7.17528E-06-1.10443E-05 0.00000E+00 6.68507E-07-8.42359E-23-8.79141E-24
 -1        20-5.85812E-06-7.25093E-06 0.00000E+00 4.98134E-06 1.83437E-24 2.19013E-25
 -1        21-4.61619E-06-6.31690E-06 0.00000E+00 6.16112E-06-1.76774E-23 1.26149E-23
 -1        22-3.58602E-06-5.45745E-06 0.00000E+00 7.60555E-06-4.87470E-23-6.99675E-24
 -1        23-7.32479E-06-8.11351E-06 0.00000E+00 2.69536E-06-4.80894E-23-3.56782E-25
 -1        24-5.11506E-06-6.26499E-06 0.00000E+00 5.49573E-06 1.96690E-22-2.17885E-23
 -1        25-4.77400E-06-5.92591E-06 0.00000E+00 6.94292E-06 1.49827E-22-6.96261E-23
 -1        26 1.23279E-06-6.45585E-06 0.00000E+00 7.80188E-06 2.82583E-22-9.44206E-24
 -1        27-6.37109E-06-8.60644E-06 0.00000E+00-8.12357E-07-1.70756E-22 5.57241E-23
 -1        28-6.24464E-06-7.40572E-06 0.00000E+00-5.20318E-08 1.92247E-22 1.34872E-23
 -1        29-6.36547E-06-6.31354E-06 0.00000E+00 1.78795E-08-4.87747E-22 6.64860E-24
 -1        30-6.83659E-06-5.24020E-06 0.00000E+00 1.98464E-08 3.76165E-22-2.38969E-22
 -1        31-7.38963E-06-4.16700E-06 0.00000E+00 1.40219E-08 6.99469E-22 1.40137E-23
 -1        32-7.24936E-06-3.24446E-06 0.00000E+00 7.00685E-09-1.12239E-23 1.84787E-22
 -1        33-6.07857E-06-2.49536E-06 0.00000E+00-6.79425E-08 4.98686E-22-2.28608E-23
 -1        34-2.75192E-06-9.74388E-06 0.00000E+00 9.44967E-07 4.77036E-23-6.37372E-24
 -1        35-6.00889E-06-7.79387E-06 0.00000E+00-2.09025E-07 9.31416E-23 7.37836E-23
 -1        36-6.24022E-06-6.85780E-06 0.00000E+00-5.36716E-09-7.07872E-23-2.89245E-24
 -1        37-6.56067E-06-5.78921E-06 0.00000E+00 1.75729E-09 4.23469E-22 1.55477E-22
 -1        38-7.09302E-06-4.70028E-06 0.00000E+00-7.56136E-09-3.07614E-22 1.98119E-22
 -1        39-7.36288E-06-3.72631E-06 0.00000E+00-4.58202E-09 3.43224E-22 3.87484E-22
 -1        40-6.75789E-06-2.81151E-06 0.00000E+00-2.35390E-08 9.06978E-22-5.43164E-22
 -1        41-4.95725E-06-2.30196E-06 0.00000E+00-8.07265E-08 9.39132E-22-8.51033E-23
 -1        42-3.44418E-06-2.14114E-06 0.00000E+00-6.54620E-08-1.43189E-22-7.29098E-22
 -1        43-3.01335E-06-2.27964E-06 0.00000E+00 3.46123E-08 2.93602E-22-2.44308E-22
 -1        44-2.74857E-06-2.34297E-06 0.00000E+00 1.12588E-08 1.33960E-21-2.68413E-22
 -1        45-3.58137E-06-2.45927E-06 0.00000E+00-1.84554E-07-1.74422E-22-2.51541E-22
 -1        46-3.20325E-06-2.13682E-06 0.00000E+00 2.28371E-08 1.27627E-21-1.51099E-22
 -1        47-2.88869E-06-2.32162E-06 0.00000E+00 2.06984E-09 6.54914E-22-4.36206E-22
 -1        48-2.59379E-06-2.39046E-06 0.00000E+00 8.07868E-09 7.92298E-22-3.58340E-22
 -1        49-2.43629E-06-2.41365E-06 0.00000E+00 3.93939E-09-2.23480E-22-1.53714E-22
 -1        50-2.43375E-06-2.49347E-06 0.00000E+00-1.83458E-08 1.49582E-22 7.62274E-23
 -1        51-2.44569E-06-2.54052E-06 0.00000E+00-2.50968E-08-1.44640E-21-8.58531E-23
 -1        52-2.43249E-06-2.41614E-06 0.00000E+00 2.84952E-09-9.08665E-22-2.89227E-22
 -1        53-2.42689E-06-2.45533E-06 0.00000E+00-7.89544E-09 7.37892E-22-2.33715E-22
 -1        54-2.41944E-06-2.52686E-06 0.00000E+00-3.30324E-08 1.01041E-21 6.47823E-22
 -1        55-2.44965E-06-2.50031E-06 0.00000E+00-1.15283E-08-8.74648E-22 1.76982E-22
 -1        56-4.02102E-06-2.10871E-06 0.00000E+00 3.91125E-07-1.99290E-22 3.19773E-23
 -1        57-5.27164E-06-1.93043E-06 0.00000E+00 9.68589E-07-4.08246E-22 1.96613E-22
 -1        58-6.90056E-06-1.82569E-06 0.00000E+00 1.88051E-06 7.20749E-23-1.66472E-22
 -1        59-8.83490E-06-1.75272E-06 0.00000E+00 3.27138E-06-2.71550E-22 5.28431E-23
 -1        60-1.09180E-05-1.88558E-06 0.00000E+00 4.89836E-06 8.84944E-22 2.15858E-22
 -1        61-1.28127E-05-2.43391E-06 0.00000E+00 6.93056E-06-6.34691E-23 2.26937E-22
 -1        62-1.44055E-05-3.31050E-06 0.00000E+00 9.09527E-06-1.91052E-22 5.69972E-23
 -1        63-1.54073E-05-4.52043E-06 0.00000E+00 1.11574E-05 1.10210E-22 9.44004E-23
 -1        64-1.54363E-05-5.89544E-06 0.00000E+00 1.26290E-05-4.82001E-23 1.26530E-22
 -1        65-1.42760E-05-7.05553E-06 0.00000E+00 1.30957E-05-3.38872E-23-1.51567E-22
 -1        66-1.21826E-05-7.51360E-06 0.00000E+00 1.20652E-05 3.05008E-23 1.85549E-22
 -1        67-3.27252E-06-2.25189E-06 0.00000E+00 2.12395E-07-2.36359E-21-5.85975E-22
 -1        68-4.60784E-06-2.00255E-06 0.00000E+00 7.18427E-07 1.67455E-21-2.87144E-22
 -1        69-6.03960E-06-1.82655E-06 0.00000E+00 1.41198E-06 1.27524E-21-3.29314E-23
 -1        70-7.87722E-06-1.79415E-06 0.00000E+00 2.55770E-06-8.32578E-23-6.05217E-23
 -1        71-9.92358E-06-1.66363E-06 0.00000E+00 4.02895E-06-2.58419E-22 4.78011E-23
 -1        72-1.19306E-05-2.03830E-06 0.00000E+00 5.90283E-06-1.87714E-23 1.04394E-22
 -1        73-1.36880E-05-2.75458E-06 0.00000E+00 8.00568E-06-4.12405E-22 2.27164E-22
 -1        74-1.49979E-05-3.79707E-06 0.00000E+00 1.01365E-05-4.06940E-23 1.34995E-23
 -1        75-1.54734E-05-5.14315E-06 0.00000E+00 1.19392E-05-2.97128E-22 5.01140E-22
 -1        76-1.48891E-05-6.52720E-06 0.00000E+00 1.29453E-05 3.79110E-22-3.00345E-22
 -1        77-1.34384E-05-7.47189E-06 0.00000E+00 1.27786E-05 6.53342E-23 3.39518E-22
 -1        78-1.15430E-05-7.35369E-06 0.00000E+00 1.17732E-05 7.43678E-23 2.07699E-23
 -1        79-4.46814E-06-1.05812E-05 0.00000E+00 8.12097E-06-2.35339E-23 6.51127E-23
 -1        80-1.84184E-06-7.39835E-06 0.00000E+00 2.52074E-06 3.55531E-24 2.56676E-23
 -1        81-2.06987E-06-3.86145E-06 0.00000E+00-3.01535E-08 3.19284E-24 1.44121E-23
 -1        82-7.95741E-06-1.12273E-05 0.00000E+00 1.09306E-05 8.10098E-23-6.45895E-23
 -1        83-2.52912E-06-9.32370E-06 0.00000E+00 5.06615E-06 9.67544E-25 2.00828E-23
 -1        84-1.50244E-06-5.76000E-06 0.00000E+00 1.03006E-06 1.13990E-25-1.95856E-23
 -1        85-2.16090E-06-3.06620E-06 0.00000E+00-3.90045E-08-7.21019E-24 1.21004E-24
 -1        86-2.91646E-06-2.69551E-06 0.00000E+00 5.71968E-07 3.36609E-24 8.69718E-24
 -1        87-2.95172E-06-2.86870E-06 0.00000E+00 7.09021E-07 2.18876E-24 5.08993E-24
 -1        88-2.64111E-06-2.64519E-06 0.00000E+00 2.87732E-07 1.26190E-24-1.11454E-24
 -1        89-2.78306E-06-2.66969E-06 0.00000E+00 2.64438E-07-3.26543E-24-3.28669E-24
 -1        90-3.04677E-06-2.76247E-06 0.00000E+00 6.45940E-07-1.12238E-24-3.11121E-24
 -1        91-2.77080E-06-2.74932E-06 0.00000E+00 5.66988E-07-2.89179E-24 3.45971E-24
 -1        92-2.47191E-06-2.46355E-06 0.00000E+00 1.22622E-07-2.50508E-24-3.34255E-24
 -1        93-2.43956E-06-2.36884E-06 0.00000E+00-2.17695E-07-9.46891E-25-1.54049E-24
 -1        94-2.02693E-06-2.47010E-06 0.00000E+00-4.30597E-07-4.44830E-25-2.51899E-25
 -1        95-9.13446E-07-2.56543E-06 0.00000E+00-1.16577E-06-1.45936E-24-1.27789E-25
 -1        96-2.43129E-06-2.40449E-06 0.00000E+00-1.56215E-07-6.01431E-25 1.20518E-24
 -1        97-2.31780E-06-2.45005E-06 0.00000E+00-3.24292E-07 1.78322E-24 2.39092E-24
 -1        98-1.66350E-06-2.45379E-06 0.00000E+00-7.38941E-07-1.13875E-24 7.41085E-25
 -1        99-2.31860E-07-2.26379E-06 0.00000E+00-1.97577E-06-2.40310E-25-4.64338E-25
 -1       100-6.53152E-06-4.94312E-10 0.00000E+00 1.04718E-06 1.90822E-25 3.78448E-25
 -1       101-8.11358E-06-3.84945E-08 0.00000E+00 2.97967E-06-2.10619E-24-1.73800E-24
 -1       102-1.20050E-05-8.17377E-09 0.00000E+00 5.62384E-06 5.27559E-26-1.73687E-24
 -1       103-1.66962E-05 1.63205E-07 0.00000E+00 6.91691E-06-5.16367E-24 5.82844E-25
 -1       104-1.94481E-05-7.14585E-09 0.00000E+00 7.04536E-06-1.19732E-23 1.10235E-23
 -1       105-2.05014E-05-4.45168E-09 0.00000E+00 6.86371E-06 1.97104E-23 3.61816E-24
 -1       106-2.01901E-05-2.91422E-09 0.00000E+00 6.64500E-06-8.23241E-24 2.08708E-23
 -1       107-1.88034E-05-2.22441E-09 0.00000E+00 6.55675E-06 5.24923E-25 3.17387E-24
 -1       108-1.64495E-05 1.49107E-09 0.00000E+00 6.83830E-06-9.54377E-24 5.43644E-24
 -1       109-1.33898E-05 5.49155E-08 0.00000E+00 8.03309E-06 6.33068E-25 5.36996E-24
 -1       110-1.03717E-05 1.85029E-08 0.00000E+00 1.00253E-05 2.73338E-24-1.41839E-25
 -1       111-5.08342E-06 6.69999E-09 0.00000E+00-2.56752E-07-5.92440E-26 3.62919E-25
 -1       112-7.39176E-06 1.11851E-09 0.00000E+00 2.02976E-06-3.69896E-25-4.34386E-26
 -1       113-1.00254E-05 9.05515E-09 0.00000E+00 4.42942E-06 3.29085E-24 2.61437E-24
 -1       114-1.43977E-05 9.23696E-11 0.00000E+00 6.43706E-06 1.34953E-24 3.62158E-24
 -1       115-1.82244E-05-7.59231E-09 0.00000E+00 6.96470E-06 1.02561E-24-1.13909E-23
 -1       116-2.01466E-05-1.04254E-08 0.00000E+00 6.95150E-06 1.06333E-23-1.57954E-23
 -1       117-2.04944E-05-4.47854E-09 0.00000E+00 6.78193E-06-2.02632E-23-2.64358E-23
 -1       118-1.96205E-05-3.21123E-09 0.00000E+00 6.60039E-06-2.70806E-24 6.50200E-24
 -1       119-1.77276E-05-1.49293E-09 0.00000E+00 6.65791E-06 2.92876E-24 8.88161E-24
 -1       120-1.49304E-05 4.75774E-09 0.00000E+00 7.35308E-06 1.19079E-23 2.32040E-24
 -1       121-1.23949E-05-2.01127E-08 0.00000E+00 8.64213E-06 2.29870E-24-1.48759E-25
 -1       122-4.40246E-06-3.79666E-08 0.00000E+00 1.37122E-05-5.14466E-24-7.43198E-25
 -1       123-4.63968E-06-1.24259E-06 0.00000E+00 3.81633E-07-1.85164E-25 2.05774E-25
 -1       124-1.25104E-05-3.96971E-06 0.00000E+00 6.61654E-06-8.21951E-23-1.03830E-22
 -1       125-3.97948E-06-7.00717E-06 0.00000E+00 9.75477E-06-5.67984E-23 8.05410E-24
 -1       126-3.67245E-06-1.76360E-06 0.00000E+00 1.28850E-07 9.63469E-25-2.73126E-24
 -1       127-1.16813E-05-2.90918E-06 0.00000E+00 6.40701E-06 9.19342E-24-7.06287E-23
 -1       128-4.32893E-06-2.31736E-06 0.00000E+00-1.02144E-08-9.46765E-23 1.23194E-22
 -1       129-5.52182E-06-2.39099E-06 0.00000E+00 4.49055E-07-3.28047E-22 2.42320E-22
 -1       130-1.61351E-05-2.47939E-06 0.00000E+00 7.64944E-06-2.49466E-23 1.53212E-22
 -1       131-9.25242E-06-5.95638E-06 0.00000E+00 5.03294E-06-1.05105E-22-6.87693E-23
 -1       132-9.81433E-06-5.30452E-06 0.00000E+00 5.63609E-06 2.69495E-23 1.32638E-22
 -1       133-6.00303E-06-5.67827E-06 0.00000E+00 6.61576E-06-3.14006E-23-5.75944E-23
 -1       134-4.03022E-06-2.27296E-06 0.00000E+00 8.60986E-08 9.98599E-23-3.74090E-22
 -1       135-1.57838E-05-1.37895E-06 0.00000E+00 6.82469E-06-4.50295E-24-1.53110E-23
 -1       136-1.47756E-05-3.31988E-06 0.00000E+00 7.56043E-06 1.21459E-22 6.31628E-23
 -1       137-1.27359E-05-5.05898E-06 0.00000E+00 7.63496E-06-6.53121E-23-1.17756E-23
 -1       138-3.35474E-06-2.33052E-06 0.00000E+00-8.24463E-08-4.14052E-22-2.31392E-22
 -1       139-8.19058E-06-4.77268E-06 0.00000E+00 3.36180E-06 3.26135E-23 5.01155E-23
 -1       140-7.41752E-06-6.67424E-06 0.00000E+00 4.55665E-06-4.54628E-23 9.07639E-23
 -1       141-4.51076E-06-2.46152E-06 0.00000E+00 1.37229E-06 2.60980E-24-1.41846E-24
 -1       142-6.91562E-06-4.91337E-06 0.00000E+00 5.46518E-06 7.39833E-23 8.92643E-24
 -1       143-6.31833E-06-6.49982E-07 0.00000E+00 1.50726E-06-9.45833E-25-2.44999E-24
 -1       144-4.22465E-06-9.01069E-07 0.00000E+00-2.36869E-07-2.29112E-25-4.83141E-25
 -1       145-6.21942E-06-1.50218E-06 0.00000E+00 2.21501E-06 2.46765E-24 6.47183E-24
 -1       146-4.69261E-06-1.74522E-06 0.00000E+00 8.93676E-07-4.49582E-25 3.08990E-24
 -1       147-7.11625E-06-3.05216E-06 0.00000E+00 1.98660E-06-9.46311E-22 5.54636E-23
 -1       148-6.38076E-06-2.86016E-06 0.00000E+00 4.27077E-07-2.25324E-22 1.77849E-24
 -1       149-5.46513E-06-2.15161E-06 0.00000E+00 7.52958E-07-3.58222E-22-1.23228E-22
 -1       150-6.49714E-06-2.48042E-06 0.00000E+00 1.35051E-06 2.04294E-22 1.41773E-22
 -1       151-1.83610E-05-5.16540E-07 0.00000E+00 6.89157E-06-1.66312E-23-2.88296E-23
 -1       152-1.73334E-05-3.91854E-07 0.00000E+00 6.82985E-06-3.78356E-24 9.88405E-24
 -1       153-1.63967E-05-1.60164E-06 0.00000E+00 7.01416E-06 2.97832E-24 1.95691E-23
 -1       154-1.83823E-05-2.78930E-07 0.00000E+00 6.81307E-06 7.08142E-24-3.09510E-23
 -1       155-1.07447E-05-2.58407E-06 0.00000E+00 6.15678E-06-1.78278E-23-1.55658E-23
 -1       156-1.57644E-05-1.15067E-06 0.00000E+00 6.66921E-06-1.36571E-23 2.09467E-23
 -1       157-1.24269E-05-6.14254E-06 0.00000E+00 8.67071E-06 6.22728E-23-2.04552E-23
 -1       158-1.21933E-05-3.70038E-06 0.00000E+00 7.11890E-06-3.62617E-23 1.81417E-23
 -1       159-1.59291E-05-2.79714E-06 0.00000E+00 7.78697E-06-5.94125E-24 7.88098E-23
 -1       160-1.47658E-05-4.72649E-06 0.00000E+00 9.47262E-06-6.56804E-23-1.08861E-22
 -1       161-1.41400E-05-5.04177E-06 0.00000E+00 9.76973E-06-6.88250E-23-5.18295E-23
 -1       162-8.67143E-06-5.46929E-06 0.00000E+00 4.22586E-06 1.70850E-22-5.70833E-23
 -1       163-7.43961E-06-6.66901E-06 0.00000E+00 2.63815E-06 3.03734E-22 1.04383E-22
 -1       164-7.45609E-06-5.04518E-06 0.00000E+00 1.83598E-06 1.59159E-22-1.24768E-22
 -1       165-7.44672E-06-5.93154E-06 0.00000E+00 2.20397E-06 3.01057E-22 1.88944E-22
 -1       166-1.45636E-05-3.86515E-06 0.00000E+00 7.92582E-06-3.87144E-23-2.14628E-23
 -1       167-1.40688E-05-2.63873E-06 0.00000E+00 6.76591E-06 1.63720E-23 7.14602E-23
 -1       168-1.25623E-05-4.54211E-06 0.00000E+00 6.96775E-06-2.22457E-23-6.48571E-24
 -1       169-1.44263E-05-3.10437E-06 0.00000E+00 7.11053E-06-7.30317E-23 1.03438E-22
 -1       170-3.20850E-06-4.22143E-06 0.00000E+00 1.61263E-06-6.85158E-25-2.25978E-24
 -1       171-7.30910E-06-2.73370E-06 0.00000E+00 4.03785E-06-5.18162E-24 6.70732E-24
 -1       172-1.33925E-05-5.41105E-06 0.00000E+00 9.13406E-06 1.43034E-22 1.10495E-22
 -1       173-1.08572E-05-5.69926E-06 0.00000E+00 6.50823E-06-3.21827E-22-1.08260E-22
 -1       174-1.06807E-05-4.79962E-06 0.00000E+00 6.38085E-06-5.73382E-23-8.59448E-23
 -1       175-1.20555E-05-5.17339E-06 0.00000E+00 7.83515E-06 3.24204E-22 9.04702E-23
 -1       176-1.12357E-05-4.54853E-06 0.00000E+00 6.20225E-06 4.57370E-23 1.15454E-22
 -1       177-1.39735E-05-2.02236E-06 0.00000E+00 6.72472E-06 5.30372E-24 3.49093E-24
 -1       178-1.06830E-05-4.09731E-06 0.00000E+00 6.12363E-06-2.62607E-24-3.25380E-23
 -1       179-1.25189E-05-3.26429E-06 0.00000E+00 6.50983E-06 1.20930E-22-4.10602E-23
 -1       180-9.27097E-06-6.10737E-06 0.00000E+00 5.04898E-06-2.97423E-22 2.08408E-23
 -1       181-1.08779E-05-5.36519E-06 0.00000E+00 6.18385E-06 2.78425E-23 1.70697E-22
 -1       182-8.80244E-06-3.37769E-06 0.00000E+00 3.90045E-06-4.22813E-22 1.97990E-22
 -1       183-7.66919E-06-4.02325E-06 0.00000E+00 2.22585E-06-5.87723E-22-5.26756E-23
 -1       184-1.18067E-05-2.28398E-06 0.00000E+00 7.19335E-06-5.02867E-23 3.75870E-23
 -1       185-1.50973E-05-9.20428E-07 0.00000E+00 6.94426E-06-5.18878E-24 2.42283E-23
 -1       186-3.27107E-06-2.25659E-06 0.00000E+00-6.73846E-08 9.02015E-23 3.15980E-24
 -1       187-3.82944E-06-2.34138E-06 0.00000E+00-5.84535E-08-2.20713E-22-1.17749E-23
 -1       188-4.07371E-06-2.35861E-06 0.00000E+00-2.44475E-08-1.89731E-22-3.51026E-23
 -1       189-3.62748E-06-2.41747E-06 0.00000E+00-1.49682E-07 1.83765E-22 1.78645E-22
 -1       190-1.42750E-05-5.32950E-06 0.00000E+00 9.67376E-06-8.60178E-23-1.35270E-22
 -1       191-9.78268E-06-4.03081E-06 0.00000E+00 5.16951E-06 3.73239E-22 1.50142E-22
 -1       192-1.77471E-05-7.97802E-07 0.00000E+00 6.84772E-06-1.45173E-23-2.30258E-23
 -1       193-8.67263E-06-5.85066E-06 0.00000E+00 5.17325E-06 1.30861E-22 1.34146E-22
 -1       194-9.50144E-06-3.92396E-06 0.00000E+00 5.99205E-06 5.29497E-23 1.06808E-23
 -1       195-7.17555E-06-6.03912E-06 0.00000E+00 5.12813E-06 9.68609E-23 4.07436E-23
 -1       196-9.06388E-06-4.91630E-06 0.00000E+00 5.72335E-06 1.92400E-23 2.83862E-23
 -1       197-6.25532E-06-7.86796E-06 0.00000E+00 1.68516E-06-2.12732E-23-2.04643E-23
 -1       198-7.69776E-06-6.80024E-06 0.00000E+00 3.68421E-06 2.05352E-22 1.34708E-23
 -1       199-9.43291E-06-3.10241E-06 0.00000E+00 8.30901E-06 2.37690E-24 6.81188E-24
 -1       200-6.22219E-06-5.21403E-06 0.00000E+00 5.45035E-06-8.90471E-23-5.07252E-23
 -1       201-9.05125E-06-3.90957E-06 0.00000E+00 6.52755E-06-1.27080E-23 1.33892E-24
 -1       202-3.77086E-06-2.42163E-06 0.00000E+00 6.98491E-07 2.39952E-25-5.76991E-24
 -1       203-3.10024E-06-3.21197E-06 0.00000E+00 6.35787E-07 1.38228E-24 1.55727E-23
 -1       204-3.94817E-06-6.92639E-06 0.00000E+00 6.66582E-06 2.63037E-23 1.57453E-23
 -1       205-9.31110E-06-2.00938E-06 0.00000E+00 9.63445E-06-1.00132E-24-6.04525E-24
 -1       206-3.53329E-06-8.10060E-06 0.00000E+00 6.65812E-06 7.74328E-23-4.48380E-24
 -1       207-5.59944E-06-5.80632E-06 0.00000E+00 8.43655E-06 4.92447E-23 1.95618E-23
 -1       208-4.16595E-06-1.48330E-06 0.00000E+00 2.59403E-07 7.68068E-26 2.11211E-24
 -1       209-3.18941E-06-2.40776E-06 0.00000E+00 4.50839E-07-4.39192E-25-3.10905E-24
 -1       210-4.07948E-06-1.94078E-06 0.00000E+00 5.48456E-07-7.74406E-25-3.79010E-24
 -1       211-4.71105E-06-5.57595E-06 0.00000E+00 5.26997E-06 1.50939E-22-2.14557E-23
 -1       212-2.66938E-06-6.57045E-06 0.00000E+00 5.68247E-06 3.45356E-23 9.49114E-24
 -1       213-4.16367E-06-2.28280E-06 0.00000E+00 4.29209E-08 2.04942E-22-3.87565E-22
 -1       214-4.70563E-06-2.12687E-06 0.00000E+00 4.81714E-07 1.44623E-22-9.03402E-23
 -1       215-4.96744E-06-2.32027E-06 0.00000E+00 1.46238E-07-1.02479E-21 5.08397E-23
 -1       216-4.82442E-06-2.23297E-06 0.00000E+00 3.07272E-07-2.39564E-23-2.65828E-22
 -1       217-2.89115E-06-2.37804E-06 0.00000E+00-4.81550E-08 3.30371E-22-1.49424E-22
 -1       218-3.26509E-06-2.36960E-06 0.00000E+00-3.10127E-08 9.20593E-22-8.22619E-23
 -1       219-3.54465E-06-2.32797E-06 0.00000E+00-5.27664E-08-5.07688E-22-7.25433E-23
 -1       220-4.86446E-06-8.54054E-06 0.00000E+00 2.92290E-06 1.55651E-22 2.76322E-23
 -1       221-2.84293E-06-2.35248E-06 0.00000E+00-1.48365E-08-2.16738E-22-1.69955E-22
 -1       222-3.67421E-06-2.27260E-06 0.00000E+00 1.05419E-07-2.02549E-22-6.59044E-23
 -1       223-4.00189E-07-9.97640E-06 0.00000E+00 9.21373E-06-8.60746E-23 1.77030E-24
 -1       224-3.68827E-06-2.36068E-06 0.00000E+00 1.39433E-05-8.04249E-24-2.27086E-24
 -1       225-3.41408E-06-1.00235E-05 0.00000E+00 5.75430E-06 1.18660E-23-8.56358E-26
 -1       226-5.43721E-06-2.44784E-06 0.00000E+00 2.56208E-08-9.13919E-23-1.08899E-22
 -1       227-3.08231E-06-1.73577E-06 0.00000E+00-4.06253E-07 9.94497E-25 1.67334E-24
 -1       228-2.89998E-06-2.22265E-06 0.00000E+00 3.65468E-09 9.09542E-25-2.00032E-24
 -1       229-3.52931E-06-1.25965E-06 0.00000E+00-4.85314E-07-3.23444E-25-2.64058E-25
 -1       230-5.80312E-06-3.27093E-07 0.00000E+00 6.87642E-07 2.98119E-25 2.03313E-24
 -1       231-5.68120E-06-1.29370E-06 0.00000E+00 1.50482E-06-1.67960E-24-1.04698E-24
 -1       232-6.62119E-06-2.14791E-06 0.00000E+00 1.66714E-06-1.43272E-21 1.03432E-22
 -1       233-5.94305E-06-2.29691E-06 0.00000E+00 1.04478E-06-3.98509E-22 1.51108E-22
 -1       234-5.38166E-06-2.02589E-06 0.00000E+00 8.73685E-07 7.09639E-22-1.17946E-22
 -1       235-7.86280E-06-2.42688E-06 0.00000E+00 2.65835E-06 1.55670E-22 2.09369E-22
 -1       236-6.83890E-06-2.78079E-06 0.00000E+00 1.66061E-06-3.52247E-22 1.98156E-22
 -1       237-7.02407E-06-3.17818E-06 0.00000E+00 9.77092E-07-7.02370E-22 9.11695E-23
 -1       238-6.83859E-06-3.04298E-06 0.00000E+00 2.18203E-07-4.08664E-22-1.88033E-22
 -1       239-6.30242E-06-2.69809E-06 0.00000E+00 8.70260E-07 1.14689E-21 5.16660E-22
 -1       240-5.95078E-06-2.62873E-06 0.00000E+00 4.55154E-07 4.96711E-22-5.63237E-23
 -1       241-5.47060E-06-2.29377E-06 0.00000E+00 6.06443E-07 7.37722E-22-2.28253E-23
 -1       242-1.71965E-05-1.39530E-06 0.00000E+00 7.25761E-06-4.40855E-23-3.68545E-23
 -1       243-1.85186E-05-4.00515E-07 0.00000E+00 6.87120E-06 6.61901E-24 7.97416E-24
 -1       244-1.73611E-05-8.63054E-07 0.00000E+00 6.89355E-06-6.30797E-23-4.56249E-23
 -1       245-1.63555E-05-2.00586E-06 0.00000E+00 7.31820E-06 7.06636E-23-7.20803E-25
 -1       246-1.94420E-05-3.68800E-08 0.00000E+00 6.89177E-06-4.25300E-23 4.72812E-23
 -1       247-1.92956E-05 3.89969E-08 0.00000E+00 6.74205E-06 1.64942E-23 1.19222E-24
 -1       248-1.80660E-05-9.88715E-08 0.00000E+00 6.69407E-06 1.26608E-23 9.89912E-24
 -1       249-1.79785E-05-3.46748E-07 0.00000E+00 6.82700E-06-2.15116E-23-3.90682E-23
 -1       250-1.65501E-05-8.26781E-07 0.00000E+00 6.79598E-06 6.55659E-23 1.09717E-23
 -1       251-1.61687E-05-1.50111E-06 0.00000E+00 6.93158E-06-1.05307E-23-2.48541E-23
 -1       252-8.64019E-06-6.86320E-06 0.00000E+00 7.62329E-06-2.31889E-23 1.38346E-23
 -1       253-1.22848E-05-5.10850E-06 0.00000E+00 7.86717E-06 2.69146E-23 7.33520E-23
 -1       254-1.16869E-05-7.25277E-06 0.00000E+00 1.02695E-05 8.50360E-23 9.71061E-23
 -1       255-6.49874E-06-5.22369E-06 0.00000E+00 4.78583E-06-6.67873E-24 2.17320E-24
 -1       256-1.12708E-05-3.21229E-06 0.00000E+00 6.59894E-06-2.45221E-24 1.73973E-23
 -1       257-1.38756E-05-1.12219E-06 0.00000E+00 6.48773E-06-2.50459E-24-4.37642E-24
 -1       258-1.61499E-05-4.08356E-07 0.00000E+00 6.81099E-06-1.75658E-24-2.95990E-23
 -1       259-1.38911E-05-2.33197E-06 0.00000E+00 6.89608E-06-3.38036E-23-4.99071E-24
 -1       260-1.52325E-05-2.24919E-06 0.00000E+00 7.09898E-06 9.18580E-23 5.41196E-23
 -1       261-1.36268E-05-4.43303E-06 0.00000E+00 8.04644E-06-7.13355E-24 6.83776E-24
 -1       262-1.31170E-05-6.15599E-06 0.00000E+00 1.08564E-05-5.37262E-23-1.59591E-22
 -1       263-1.45071E-05-4.84319E-06 0.00000E+00 9.58596E-06 7.62865E-24 1.04895E-23
 -1       264-1.43959E-05-5.74292E-06 0.00000E+00 1.11107E-05 1.39865E-22 2.19510E-22
 -1       265-1.33126E-05-5.45898E-06 0.00000E+00 9.31194E-06-3.23495E-23-1.35302E-23
 -1       266-1.54254E-05-3.07973E-06 0.00000E+00 7.69132E-06 9.03424E-23 3.03419E-23
 -1       267-1.49762E-05-3.86264E-06 0.00000E+00 8.68068E-06 1.65392E-23-2.20668E-22
 -1       268-1.61219E-05-2.63649E-06 0.00000E+00 7.72875E-06 1.13585E-23 1.02847E-22
 -1       269-1.53825E-05-3.49620E-06 0.00000E+00 8.49560E-06 9.42829E-23 3.02547E-23
 -1       270-8.44309E-06-5.06907E-06 0.00000E+00 3.77419E-06 3.53134E-23 1.17936E-22
 -1       271-8.03403E-06-5.68791E-06 0.00000E+00 3.21644E-06 1.54827E-22-1.77285E-22
 -1       272-7.43543E-06-5.49067E-06 0.00000E+00 1.99884E-06-1.56119E-22-3.07213E-23
 -1       273-7.76564E-06-4.90964E-06 0.00000E+00 2.59017E-06-3.63451E-22-2.21868E-22
 -1       274-8.97186E-06-5.70320E-06 0.00000E+00 4.62747E-06 9.80574E-24-6.58012E-23
 -1       275-8.31302E-06-6.27101E-06 0.00000E+00 3.85064E-06 3.23458E-24 3.35163E-22
 -1       276-7.45925E-06-6.33334E-06 0.00000E+00 2.40122E-06-4.14571E-22-1.07461E-22
 -1       277-6.74291E-06-7.01904E-06 0.00000E+00 1.32388E-06-5.21480E-23-3.88234E-23
 -1       278-6.90011E-06-6.12626E-06 0.00000E+00 1.10537E-06 6.38149E-22 3.14440E-23
 -1       279-7.12734E-06-5.14372E-06 0.00000E+00 9.34874E-07 2.46688E-22 1.00610E-22
 -1       280-1.36093E-05-4.47198E-06 0.00000E+00 7.82491E-06-1.69100E-22-2.28087E-22
 -1       281-1.45018E-05-3.43076E-06 0.00000E+00 7.49361E-06 3.56080E-23-9.20451E-23
 -1       282-1.34694E-05-3.83890E-06 0.00000E+00 7.07589E-06-6.55857E-23-7.06922E-23
 -1       283-1.26244E-05-4.75105E-06 0.00000E+00 7.27728E-06-4.90715E-23 2.05406E-22
 -1       284-1.53452E-05-3.19901E-06 0.00000E+00 7.83300E-06 4.83211E-23 1.10169E-22
 -1       285-1.54052E-05-2.35031E-06 0.00000E+00 7.10433E-06 1.46593E-22 6.70351E-23
 -1       286-1.49264E-05-1.99888E-06 0.00000E+00 6.80257E-06-1.67294E-22-1.80815E-23
 -1       287-1.42688E-05-2.86498E-06 0.00000E+00 6.92849E-06 6.94107E-23 8.96148E-23
 -1       288-1.32887E-05-3.32685E-06 0.00000E+00 6.70211E-06-5.88914E-23-1.70097E-23
 -1       289-1.25340E-05-4.24097E-06 0.00000E+00 6.77296E-06-1.85120E-22 1.12058E-22
 -1       290-8.94320E-06-2.67213E-06 0.00000E+00 5.14735E-06-1.10848E-23-2.59655E-25
 -1       291-9.85303E-06-1.23792E-06 0.00000E+00 4.82906E-06-5.33943E-24 5.25260E-24
 -1       292-2.66779E-06-5.68438E-06 0.00000E+00 1.98072E-06 1.58283E-23 2.65188E-23
 -1       293-5.27152E-06-3.75432E-06 0.00000E+00 3.07182E-06 1.12550E-23 1.17799E-24
 -1       294-3.95335E-06-3.38212E-06 0.00000E+00 1.54616E-06-1.14446E-23-4.79160E-24
 -1       295-5.28085E-06-2.05769E-06 0.00000E+00 1.80868E-06-7.50783E-24 1.07341E-23
 -1       296-6.62359E-06-2.10227E-06 0.00000E+00 3.12655E-06-1.86047E-25 4.56520E-24
 -1       297-7.30270E-06-7.90133E-07 0.00000E+00 2.70595E-06-2.24940E-25 3.68946E-24
 -1       298-1.31906E-05-4.30811E-06 0.00000E+00 8.48293E-06-1.44636E-22 2.93884E-22
 -1       299-1.13899E-05-4.91222E-06 0.00000E+00 7.10725E-06 1.22198E-22 1.20325E-22
 -1       300-1.17645E-05-3.72886E-06 0.00000E+00 6.73505E-06 1.98708E-22 1.54230E-22
 -1       301-1.42944E-05-4.94975E-06 0.00000E+00 1.00752E-05-1.87634E-23-3.47466E-23
 -1       302-1.27532E-05-5.20523E-06 0.00000E+00 8.48919E-06 2.13508E-22 1.36775E-22
 -1       303-1.29987E-05-5.17153E-06 0.00000E+00 8.30784E-06-1.00003E-22 3.92886E-23
 -1       304-1.17818E-05-5.32277E-06 0.00000E+00 7.10599E-06-2.97023E-23 1.07169E-22
 -1       305-1.14365E-05-5.42264E-06 0.00000E+00 7.13816E-06 3.03734E-22-2.65992E-22
 -1       306-1.00254E-05-5.80411E-06 0.00000E+00 5.78890E-06-9.27522E-23 9.44475E-23
 -1       307-9.97199E-06-5.41369E-06 0.00000E+00 5.70504E-06 3.23602E-22-2.66972E-22
 -1       308-1.05413E-05-4.92258E-06 0.00000E+00 5.93276E-06 9.02473E-23 1.48185E-22
 -1       309-1.18757E-05-3.92724E-06 0.00000E+00 6.35700E-06-1.25658E-22 2.95062E-23
 -1       310-1.16316E-05-3.67648E-06 0.00000E+00 6.31525E-06-8.77861E-23 4.43640E-23
 -1       311-1.02509E-05-4.73415E-06 0.00000E+00 5.87782E-06 1.24270E-22-1.81733E-23
 -1       312-1.19044E-05-4.26077E-06 0.00000E+00 6.40668E-06 2.13396E-22-1.08494E-22
 -1       313-1.33305E-05-2.95806E-06 0.00000E+00 6.63924E-06 1.52273E-22 4.21436E-23
 -1       314-1.49430E-05-1.70342E-06 0.00000E+00 6.77108E-06-4.63562E-23-2.85222E-23
 -1       315-1.32529E-05-2.62606E-06 0.00000E+00 6.60679E-06 2.27392E-22-3.52157E-23
 -1       316-1.29040E-05-2.45507E-06 0.00000E+00 6.57127E-06-4.31988E-23-3.95375E-23
 -1       317-1.11842E-05-3.47158E-06 0.00000E+00 6.26449E-06-2.13448E-23 1.16582E-22
 -1       318-1.10438E-05-5.00345E-06 0.00000E+00 6.16322E-06-3.30387E-22-1.43236E-22
 -1       319-1.17119E-05-4.92407E-06 0.00000E+00 6.60123E-06 3.09009E-22-8.28337E-23
 -1       320-9.51653E-06-5.81828E-06 0.00000E+00 5.30311E-06 2.08125E-22 2.32983E-22
 -1       321-1.00416E-05-5.72568E-06 0.00000E+00 5.65416E-06 1.50612E-22-2.30443E-22
 -1       322-9.26877E-06-6.08641E-06 0.00000E+00 5.01195E-06-2.36356E-22-3.39303E-23
 -1       323-1.08555E-05-5.54862E-06 0.00000E+00 6.32118E-06-5.61815E-23-2.77421E-23
 -1       324-8.94304E-06-2.62568E-06 0.00000E+00 3.67534E-06-3.20720E-23 3.39382E-23
 -1       325-8.04873E-06-3.72076E-06 0.00000E+00 3.05416E-06-1.07066E-22 1.44664E-22
 -1       326-7.46786E-06-3.55709E-06 0.00000E+00 2.13573E-06-5.78803E-22-4.78343E-22
 -1       327-8.53436E-06-4.14404E-06 0.00000E+00 3.69239E-06-4.14348E-22-8.89255E-23
 -1       328-7.55690E-06-4.56312E-06 0.00000E+00 2.04767E-06-7.48133E-23-1.10889E-22
 -1       329-7.36974E-06-4.10359E-06 0.00000E+00 1.14439E-06-1.58104E-23-1.46287E-22
 -1       330-1.24946E-05-1.32624E-06 0.00000E+00 7.67054E-06-8.76996E-24 1.06543E-23
 -1       331-1.35634E-05-1.52862E-06 0.00000E+00 7.01572E-06-1.73298E-25 1.65033E-23
 -1       332-1.57431E-05-5.21702E-07 0.00000E+00 6.92953E-06 1.00960E-24 1.39021E-24
 -1       333-1.17086E-05-2.57968E-06 0.00000E+00 6.70250E-06-7.09958E-23 4.54885E-23
 -1       334-1.45268E-05-1.45433E-06 0.00000E+00 6.76665E-06-3.15056E-23-4.73038E-23
 -1       335-1.63155E-05-6.82781E-07 0.00000E+00 6.86644E-06 1.40919E-23 5.92773E-24
 -1       336-3.55968E-06-2.29211E-06 0.00000E+00-1.12156E-07 2.96573E-22 3.16704E-23
 -1       337-3.82243E-06-2.37825E-06 0.00000E+00-7.97763E-08 8.34958E-22-4.31115E-22
 -1       338-3.91617E-06-2.47870E-06 0.00000E+00-4.69753E-08 1.14700E-22-2.65113E-23
 -1       339-3.18310E-06-2.26850E-06 0.00000E+00-3.77602E-08 1.97790E-23-2.81854E-22
 -1       340-3.45112E-06-2.31012E-06 0.00000E+00-9.66367E-08-9.14724E-22 1.90968E-24
 -1       341-3.31047E-06-2.31196E-06 0.00000E+00-8.26172E-08 3.28319E-22 8.14697E-23
 -1       342-3.60036E-06-2.33953E-06 0.00000E+00-8.20677E-08-4.11287E-22-9.82605E-23
 -1       343-3.73810E-06-2.35331E-06 0.00000E+00-9.33901E-08 3.33191E-22 4.57756E-23
 -1       344-4.06233E-06-2.34357E-06 0.00000E+00-2.79568E-08 4.48576E-22 1.96162E-22
 -1       345-4.18184E-06-2.31946E-06 0.00000E+00-8.03847E-09 1.13027E-23 4.04564E-23
 -1       346-1.43412E-05-4.47878E-06 0.00000E+00 8.69159E-06-9.23740E-23 9.70159E-23
 -1       347-1.45137E-05-5.07689E-06 0.00000E+00 9.59518E-06-9.68981E-23-3.05878E-24
 -1       348-1.38344E-05-5.33594E-06 0.00000E+00 9.41935E-06-1.16075E-22-3.29258E-23
 -1       349-1.46924E-05-5.50125E-06 0.00000E+00 1.09963E-05 1.00954E-22-1.44998E-22
 -1       350-9.25738E-06-4.83239E-06 0.00000E+00 4.73056E-06 3.53256E-22 2.48363E-22
 -1       351-1.02657E-05-4.33914E-06 0.00000E+00 5.76531E-06 4.55061E-22-1.63882E-22
 -1       352-9.29998E-06-3.59172E-06 0.00000E+00 4.49127E-06 1.26069E-21 8.79764E-23
 -1       353-1.04267E-05-3.08957E-06 0.00000E+00 5.15143E-06 2.35062E-22-1.86335E-22
 -1       354-1.67816E-05-1.68022E-06 0.00000E+00 7.35298E-06 2.06265E-23-2.72020E-24
 -1       355-1.82202E-05-6.89226E-07 0.00000E+00 6.88416E-06-3.82886E-23 1.23425E-23
 -1       356-1.69657E-05-1.01195E-06 0.00000E+00 6.77299E-06-9.31641E-24 2.70267E-23
 -1       357-1.85859E-05-1.63337E-07 0.00000E+00 6.98392E-06 3.12007E-23-5.83588E-24
 -1       358-8.07701E-06-6.19795E-06 0.00000E+00 4.88945E-06-2.64968E-22-1.81276E-23
 -1       359-8.89873E-06-5.44860E-06 0.00000E+00 5.41579E-06-1.13761E-22 9.76405E-25
 -1       360-8.13582E-06-5.47412E-06 0.00000E+00 5.41484E-06 2.00432E-22-8.81702E-23
 -1       361-7.29436E-06-6.50706E-06 0.00000E+00 4.75167E-06-3.47166E-23 7.05469E-23
 -1       362-9.27084E-06-5.56346E-06 0.00000E+00 5.41275E-06 8.51700E-23-8.68625E-23
 -1       363-9.88636E-06-4.50943E-06 0.00000E+00 5.91575E-06 7.53831E-23 5.58114E-23
 -1       364-1.06042E-05-3.44389E-06 0.00000E+00 6.20670E-06-5.19173E-23 3.76776E-23
 -1       365-9.26371E-06-4.39713E-06 0.00000E+00 5.85463E-06-2.74353E-23-4.88129E-24
 -1       366-8.23132E-06-4.52397E-06 0.00000E+00 5.69637E-06-1.00429E-22-2.48779E-23
 -1       367-7.02670E-06-5.69751E-06 0.00000E+00 5.34026E-06 6.51397E-23-4.70872E-23
 -1       368-8.47897E-06-6.42290E-06 0.00000E+00 4.36680E-06 2.75244E-23-6.90374E-23
 -1       369-7.57365E-06-6.84307E-06 0.00000E+00 3.09119E-06 4.77259E-23-1.53421E-22
 -1       370-8.13582E-06-6.51824E-06 0.00000E+00 4.38810E-06 1.54149E-23 4.10591E-23
 -1       371-6.74291E-06-7.37622E-06 0.00000E+00 3.15113E-06-1.28445E-22 9.52281E-23
 -1       372-6.85394E-06-7.29492E-06 0.00000E+00 2.77263E-06-3.21433E-23-1.53704E-22
 -1       373-6.29314E-06-7.70836E-06 0.00000E+00 7.62143E-07 9.17397E-23 5.85758E-23
 -1       374-1.14206E-05-1.45874E-06 0.00000E+00 8.27716E-06-2.98662E-23 2.50185E-24
 -1       375-9.14879E-06-3.74105E-06 0.00000E+00 7.33326E-06 1.10345E-23 1.77638E-24
 -1       376-1.04137E-05-3.01677E-06 0.00000E+00 6.94086E-06-1.28658E-23 6.19505E-23
 -1       377-7.72100E-06-4.52268E-06 0.00000E+00 7.45956E-06-1.20741E-22 1.41268E-23
 -1       378-6.06313E-06-5.39337E-06 0.00000E+00 6.00483E-06 2.71328E-23 4.12030E-23
 -1       379-7.63437E-06-4.63719E-06 0.00000E+00 6.01846E-06 4.51555E-23-4.14433E-23
 -1       380-6.52706E-06-4.89552E-06 0.00000E+00 5.32296E-06-6.43938E-23 1.43355E-22
 -1       381-9.24078E-06-3.77996E-06 0.00000E+00 6.14795E-06 6.53544E-23-5.32861E-23
 -1       382-2.90691E-06-3.39659E-06 0.00000E+00 3.41350E-07-1.05755E-23-5.75814E-24
 -1       383-2.71870E-06-3.77559E-06 0.00000E+00 9.55036E-07 4.85197E-24 8.18663E-24
 -1       384-2.78334E-06-2.93101E-06 0.00000E+00 5.35238E-07 2.24716E-24-6.32752E-24
 -1       385-3.28660E-06-2.58199E-06 0.00000E+00 6.12616E-07-2.47843E-24-9.41612E-24
 -1       386-3.53368E-06-2.79008E-06 0.00000E+00 6.25065E-07-2.57672E-24-4.31033E-24
 -1       387-3.98133E-06-2.46031E-06 0.00000E+00 9.62970E-07-4.62472E-25 1.91687E-23
 -1       388-3.74337E-06-6.69836E-06 0.00000E+00 6.60175E-06-1.93871E-22 6.69824E-24
 -1       389-4.85459E-06-6.68096E-06 0.00000E+00 7.31692E-06 7.57649E-23-1.26630E-23
 -1       390-4.32076E-06-6.84749E-06 0.00000E+00 7.87712E-06 5.15209E-23 2.52795E-23
 -1       391-4.13601E-06-7.48567E-06 0.00000E+00 6.21878E-06-4.69258E-23-9.84223E-24
 -1       392-4.82010E-06-6.18208E-06 0.00000E+00 6.65892E-06 1.10034E-22-1.59762E-23
 -1       393-7.57004E-06-4.23546E-06 0.00000E+00 8.42799E-06 5.46997E-23 8.24323E-24
 -1       394-1.13271E-05-7.49410E-07 0.00000E+00 8.94898E-06 2.90365E-23 1.98159E-24
 -1       395-7.37455E-06-4.16886E-06 0.00000E+00 9.09967E-06 1.65564E-23-1.17547E-23
 -1       396-6.11122E-06-4.21683E-06 0.00000E+00 1.01461E-05-2.42275E-23-6.09445E-24
 -1       397-3.61687E-06-8.15357E-06 0.00000E+00 8.01050E-06 4.77555E-24 1.03528E-24
 -1       398-3.91756E-06-1.63085E-06 0.00000E+00 1.87179E-07 2.67637E-25-4.74652E-24
 -1       399-4.12418E-06-1.68984E-06 0.00000E+00 3.94753E-07-2.17780E-25 1.36988E-24
 -1       400-3.61714E-06-2.15403E-06 0.00000E+00 4.59401E-07-8.55971E-27-2.47847E-24
 -1       401-3.39207E-06-2.12499E-06 0.00000E+00 3.00655E-07 1.00812E-24 2.32868E-24
 -1       402-4.38265E-06-1.36405E-06 0.00000E+00 2.99585E-07-4.17669E-25 1.82041E-24
 -1       403-4.68146E-06-1.46838E-06 0.00000E+00 6.55009E-07 4.30390E-25-5.94558E-24
 -1       404-4.34225E-06-1.82918E-06 0.00000E+00 6.95369E-07 2.38582E-24-3.68537E-24
 -1       405-4.61640E-06-2.10061E-06 0.00000E+00 1.15234E-06-3.35875E-24-3.16316E-24
 -1       406-3.92721E-06-2.16329E-06 0.00000E+00 6.04157E-07 2.27188E-24 5.30860E-24
 -1       407-3.03091E-06-2.65831E-06 0.00000E+00 5.81499E-07-5.80064E-26-1.55938E-23
 -1       408-2.83724E-06-6.22946E-06 0.00000E+00 6.40109E-06 7.68608E-24 4.83622E-23
 -1       409-3.78796E-06-6.72522E-06 0.00000E+00 6.25698E-06 8.69853E-23-1.77624E-23
 -1       410-6.57090E-07-7.42118E-06 0.00000E+00 5.73172E-06 4.35976E-23-3.68576E-23
 -1       411-3.59559E-06-5.77217E-06 0.00000E+00 5.40242E-06-2.72906E-22-1.35813E-24
 -1       412-5.91488E-06-5.33804E-06 0.00000E+00 5.22833E-06 1.70480E-23 6.96068E-24
 -1       413-4.76493E-06-5.70374E-06 0.00000E+00 5.64709E-06 3.56340E-23-1.94399E-23
 -1       414-4.23539E-06-2.29804E-06 0.00000E+00 2.90723E-08-2.97005E-22-1.11252E-22
 -1       415-4.50739E-06-2.26610E-06 0.00000E+00 1.65631E-07 1.94755E-22 4.61368E-22
 -1       416-4.88681E-06-2.28640E-06 0.00000E+00 2.35349E-07-1.02237E-21-5.06864E-23
 -1       417-4.64788E-06-2.30277E-06 0.00000E+00 8.47332E-08 8.59923E-25-4.53583E-24
 -1       418-4.09030E-06-2.26532E-06 0.00000E+00 6.98755E-08-1.34985E-21 1.39439E-22
 -1       419-4.37959E-06-2.20295E-06 0.00000E+00 2.73585E-07-1.39153E-22-1.73013E-22
 -1       420-4.77039E-06-2.16515E-06 0.00000E+00 4.02258E-07-3.52888E-22 1.54905E-22
 -1       421-5.01047E-06-2.05059E-06 0.00000E+00 7.17521E-07-7.47709E-22-4.37999E-23
 -1       422-5.13256E-06-2.19845E-06 0.00000E+00 5.25680E-07 9.15907E-22-7.75391E-23
 -1       423-5.24542E-06-2.37932E-06 0.00000E+00 2.83737E-07 7.81155E-22 3.55984E-22
 -1       424-3.85353E-06-2.31449E-06 0.00000E+00-2.49098E-09-2.14292E-22-8.92581E-23
 -1       425-3.40389E-06-2.33543E-06 0.00000E+00-4.01121E-08-3.12502E-22-3.52484E-22
 -1       426-3.64915E-06-2.28192E-06 0.00000E+00 3.12666E-08-2.07623E-22 1.31711E-22
 -1       427-3.68879E-06-2.33636E-06 0.00000E+00-6.11754E-08-1.01561E-21-2.34072E-22
 -1       428-3.12176E-06-2.35013E-06 0.00000E+00-6.50011E-08 7.88187E-22-3.35540E-22
 -1       429-3.22143E-06-2.36095E-06 0.00000E+00-5.43791E-08 2.79049E-23 1.39044E-22
 -1       430-2.65754E-06-2.42828E-06 0.00000E+00-3.18561E-08-1.14138E-22-3.74673E-22
 -1       431-2.85208E-06-2.41061E-06 0.00000E+00-2.60433E-08 1.05646E-21-1.39209E-22
 -1       432-4.29586E-06-7.79590E-06 0.00000E+00 3.61700E-06-1.53783E-22 5.98086E-23
 -1       433-5.78539E-06-7.18796E-06 0.00000E+00 4.11240E-06 1.28529E-22-5.74804E-23
 -1       434-5.62955E-06-8.52341E-06 0.00000E+00 1.15920E-06 3.32812E-23 1.25725E-22
 -1       435-5.85757E-06-8.20710E-06 0.00000E+00 2.05376E-06 2.40247E-23-4.07192E-23
 -1       436-2.79672E-06-2.34616E-06 0.00000E+00 2.30702E-10 3.26721E-22 3.79766E-22
 -1       437-3.05787E-06-2.30362E-06 0.00000E+00-3.89168E-08 1.48505E-23-1.30830E-22
 -1       438-2.63856E-06-2.38422E-06 0.00000E+00-7.64768E-09 1.94081E-22 6.36561E-22
 -1       439-2.86751E-06-2.37040E-06 0.00000E+00-3.48783E-08 6.91601E-22-6.86398E-23
 -1       440-3.05036E-06-2.36174E-06 0.00000E+00 5.46924E-08 9.68407E-22 7.95847E-23
 -1       441-3.47376E-06-2.33527E-06 0.00000E+00 2.43278E-08-4.94402E-22 1.15716E-22
 -1       442-3.85179E-06-2.21844E-06 0.00000E+00 2.40255E-07 6.34276E-22 1.63424E-22
 -1       443-4.18588E-06-2.13863E-06 0.00000E+00 3.11174E-07-4.89648E-22 8.19168E-25
 -1       444-6.02576E-06-1.06751E-06 0.00000E+00 1.22440E-05-1.34178E-24 1.91129E-24
 -1       445-8.49988E-06-2.78365E-06 0.00000E+00 1.04930E-05-1.36746E-23 2.59777E-24
 -1       446-1.65404E-06-6.86330E-06 0.00000E+00 1.09247E-05 2.18066E-23 5.78657E-24
 -1       447-1.21778E-07-1.12791E-05 0.00000E+00 5.95363E-06-1.72766E-24 4.18043E-24
 -1       448-1.92978E-06-5.78058E-06 0.00000E+00 1.19822E-05 2.22068E-24 7.05014E-24
 -1       449-2.94582E-06-8.23147E-06 0.00000E+00 9.43446E-06 7.86288E-23-3.25829E-24
 -1       450-3.54663E-06-8.76570E-06 0.00000E+00 6.05732E-06-6.23603E-23-6.54618E-24
 -1       451-4.68532E-06-9.13132E-06 0.00000E+00 5.17473E-06-6.90216E-24 1.83275E-25
 -1       452-2.11160E-06-1.04190E-05 0.00000E+00 7.22488E-06-4.64034E-23-1.22090E-24
 -1       453-4.13647E-06-1.05151E-05 0.00000E+00 3.22021E-06-1.27306E-22 5.13564E-25
 -1       454-5.75506E-06-2.47626E-06 0.00000E+00-4.22198E-08 3.96895E-22 8.88837E-23
 -1       455-5.91371E-06-2.63121E-06 0.00000E+00 1.95315E-07 4.92819E-22 1.07997E-22
 -1       456-4.78174E-06-2.31489E-06 0.00000E+00-7.96829E-09-5.83895E-22 2.07329E-22
 -1       457-5.21192E-06-2.36517E-06 0.00000E+00 8.31494E-08-4.03728E-22-1.05553E-22
 -1       458-2.76126E-06-2.44749E-06 0.00000E+00 1.50613E-07-4.87474E-25 1.59217E-24
 -1       459-3.07396E-06-2.29746E-06 0.00000E+00 2.69648E-07 8.34878E-25 4.93601E-24
 -1       460-2.57509E-06-2.24338E-06 0.00000E+00-6.89577E-08-9.65169E-26 1.41661E-24
 -1       461-2.63734E-06-2.02501E-06 0.00000E+00-4.09394E-07 1.02798E-24 7.27011E-25
 -1       462-3.02034E-06-2.01073E-06 0.00000E+00-1.96227E-07-1.28078E-24-3.56504E-25
 -1       463-3.43399E-06-1.72180E-06 0.00000E+00-8.96919E-08 1.61766E-24 7.89327E-25
 -1       464-3.95377E-06-1.39775E-06 0.00000E+00-1.82489E-08-1.52877E-26-2.78097E-24
 -1       465-3.79940E-06-1.09173E-06 0.00000E+00-3.40343E-07-7.52681E-26 6.95142E-25
 -1       466-4.50902E-06-1.08315E-06 0.00000E+00 1.39542E-07 2.01558E-25 3.44868E-25
 -1       467-3.36965E-06-1.46779E-06 0.00000E+00-4.40769E-07-3.06021E-25 6.46876E-25
 -1       468-3.05606E-06-1.51672E-06 0.00000E+00-7.72759E-07-1.14918E-25-1.67757E-24
 -1       469-3.60747E-06-6.27604E-07 0.00000E+00-1.08084E-06-1.31975E-25-1.64796E-25
 -1       470-7.22178E-06-3.33924E-07 0.00000E+00 2.26965E-06 9.13913E-25 1.75234E-24
 -1       471-6.13086E-06-5.26776E-07 0.00000E+00 1.14717E-06-1.14638E-24 2.85087E-24
 -1       472-6.10913E-06-2.23848E-07 0.00000E+00 8.45384E-07 9.31361E-26 4.37982E-25
 -1       473-5.44833E-06-9.12056E-07 0.00000E+00 8.69627E-07-9.32356E-25-4.93348E-24
 -1       474-5.13868E-06-6.34191E-07 0.00000E+00 2.97398E-07-2.18943E-25-5.38819E-25
 -1       475-5.98330E-06-1.00634E-06 0.00000E+00 1.48509E-06 1.23635E-24 2.93386E-24
 -1       476-5.14897E-06-1.52167E-06 0.00000E+00 1.17307E-06-2.95048E-24-2.29858E-24
 -1       477-5.95094E-06-1.40829E-06 0.00000E+00 1.83897E-06 1.57973E-24-3.44448E-25
 -3
    1PSTEP                         4           1           1          
  100CL  101 1.000000000         475                     0    1           1
 -4  FORC        4    1
 -5  F1          1    2    1    0
 -5  F2          1    2    2    0
 -5  F3          1    2    3    0
 -5  ALL         1    2    0    0    1ALL
 -1         1-5.81066E+07-4.72528E+07 3.63798E-12
 -1         2-1.04419E+07 1.98108E+07 6.73026E-11
 -1         3-8.96824E+06 4.52402E+07-1.52795E-10
 -1         4 7.79499E+05 1.28487E+07-1.67711E-09
 -1         5-3.04747E+06 1.36494E+06-1.98952E-10
 -1         6-3.82348E+06-7.83559E+06-3.03044E-09
 -1         8-6.42418E+06-1.09252E+07 2.91038E-11
 -1        10-8.26005E+06-1.24962E+06 2.91038E-11
 -1        11-2.65947E+06-3.18487E+06-2.61480E-12
 -1        12 7.28029E+06 4.24083E+06-1.81899E-12
 -1        13 1.02488E+06 1.51329E+07-3.63798E-12
 -1        14 7.48485E+05 1.49181E+07 1.27329E-11
 -1        15 5.77569E+05 1.47032E+07 8.73115E-11
 -1        16-2.15718E+06 3.04806E+07-1.59162E-11
 -1        17-1.45987E+06 3.00509E+07 1.81899E-11
 -1        18-1.01256E+06 2.96213E+07-4.36557E-11
 -1        19-9.48138E+05 2.91916E+07 7.27596E-12
 -1        20-2.05145E+07 2.46968E+07-6.54836E-11
 -1        21-1.90581E+07 2.40389E+07 1.23691E-10
 -1        22-1.91001E+07 2.33810E+07-2.03727E-10
 -1        23-4.39261E+07 5.00515E+07-2.18279E-11
 -1        24-4.33227E+07 4.87357E+07-1.01863E-10
 -1        25-4.26880E+07 4.74199E+07-9.45874E-11
 -1        26-4.11929E+07 4.61042E+07 2.29193E-10
 -1        27 1.22609E+06 6.42525E+07 5.82077E-10
 -1        28 4.83659E+06 5.79009E+07 3.20142E-10
 -1        29 4.05940E+06 5.15494E+07-8.44011E-10
 -1        30 4.10891E+06 4.51978E+07-5.52973E-10
 -1        31 5.09613E+06 3.88463E+07-6.98492E-10
 -1        32 5.61344E+06 3.24948E+07-3.34694E-10
 -1        33 1.46341E+06 2.61432E+07-3.73984E-09
 -1        34-6.74047E+06 1.34856E+08 2.47383E-10
 -1        35-7.88583E+06 1.22153E+08-1.51340E-09
 -1        36-1.32013E+07 1.09450E+08 1.39698E-09
 -1        37-1.09882E+07 9.67472E+07-1.28057E-09
 -1        38-1.15815E+07 8.40441E+07 2.12458E-09
 -1        39-1.49946E+07 7.13411E+07 5.23869E-10
 -1        40-5.82309E+06 5.86380E+07 1.19326E-09
 -1        41-4.57605E+06 4.59349E+07-6.83940E-10
 -1        42 1.98184E+05 2.72989E+06-7.05768E-10
 -1        43 2.05824E+05 2.72989E+06-2.10548E-10
 -1        44 2.50535E+05 2.72989E+06-4.84761E-10
 -1        45-5.96932E+05 5.45977E+06 8.18545E-10
 -1        46-5.19886E+05 5.45977E+06 8.64020E-11
 -1        47-5.72226E+05 5.45977E+06-2.74667E-10
 -1        48-7.17747E+05 5.45977E+06 1.55524E-10
 -1        49-6.02394E+06-1.96336E-06-4.31100E-10
 -1        50-5.37147E+06 1.34853E-06-6.54836E-11
 -1        51-5.09797E+06 2.59717E-06-5.16593E-10
 -1        52-1.34095E+07-4.36848E-07 4.37467E-10
 -1        53-1.35496E+07 3.58064E-07 2.00089E-10
 -1        54-1.49116E+07-4.34765E-06-3.38332E-10
 -1        55-1.58468E+07-4.67450E-06 4.25644E-09
 -1        56-2.06929E+06-1.55248E+07 6.40284E-10
 -1        57-1.40831E+06-1.53431E+07 2.75031E-09
 -1        58-1.24818E+06-1.51265E+07-2.03727E-10
 -1        59 1.65132E+06-1.48754E+07-2.03727E-10
 -1        60-1.84971E+06-1.45904E+07-1.45519E-11
 -1        61-2.42038E+06-1.42722E+07 3.20142E-10
 -1        62-3.21225E+06-1.39214E+07 2.32831E-10
 -1        63-4.17867E+06-1.35390E+07 1.48430E-09
 -1        64-4.84376E+06-1.31257E+07 2.91038E-11
 -1        65-5.76634E+06-1.26826E+07 2.32831E-10
 -1        66-7.17449E+06-1.20353E+07-1.45519E-10
 -1        67-9.34126E+06-3.11960E+07 3.78350E-10
 -1        68-1.04927E+07-3.08680E+07 1.25874E-09
 -1        69-1.51917E+07-3.04696E+07 3.34694E-10
 -1        70-1.95966E+07-3.00019E+07 1.39698E-09
 -1        71-2.07015E+07-2.94658E+07 8.73115E-11
 -1        72-2.26387E+07-2.88626E+07-5.82077E-11
 -1        73-2.40391E+07-2.81936E+07-1.04774E-09
 -1        74-2.42802E+07-2.74604E+07-1.57161E-09
 -1        75-2.52498E+07-2.66647E+07-3.49246E-10
 -1        76-2.68785E+07-2.58083E+07 6.40284E-10
 -1        77-2.72241E+07-2.48931E+07 5.23869E-10
 -1        78-2.59429E+07-2.46219E+07 2.61934E-10
 -1        79-7.80830E+06-6.68844E+06 0.00000E+00
 -1        80-8.19299E+06-3.87321E+06-7.27596E-11
 -1        81-1.13532E+07-9.33732E+05-3.45608E-11
 -1        82-2.38815E+07-1.57820E+07 1.45519E-10
 -1        83-2.89728E+07-1.05623E+07 2.91038E-11
 -1        84-2.66937E+07-4.69343E+06 8.00355E-11
 -1        85-2.72947E+07 1.91896E+06 1.81899E-11
 -1        86-4.25856E+06-5.45977E+06 7.27596E-12
 -1        87-4.51916E+06-5.45977E+06 1.09139E-11
 -1        88-5.29062E+06-5.45977E+06-2.04636E-12
 -1        89-1.34524E+07-1.09195E+07-1.81899E-11
 -1        90-1.31562E+07-1.09195E+07-3.63798E-11
 -1        91-1.13512E+07-1.09195E+07-8.18545E-12
 -1        92-1.11813E+07-1.09195E+07-9.09495E-13
 -1        93 1.36624E+05-9.09962E+05-1.13687E-12
 -1        94 1.15860E+05-9.09962E+05 2.27374E-13
 -1        95 1.05404E+05-9.09962E+05 2.27374E-13
 -1        96-2.29265E+05-1.81992E+06 2.72848E-12
 -1        97-2.03982E+05-1.81992E+06-2.27374E-13
 -1        98-1.72762E+05-1.81992E+06-6.82121E-13
 -1        99-2.09323E+05-1.81992E+06 6.82121E-13
 -1       100 3.62924E+07-4.12411E+06 3.63798E-12
 -1       101 4.72392E+07-1.29962E+07-1.81899E-11
 -1       102 6.83875E+07-2.26262E+07 4.36557E-11
 -1       103 9.58750E+07-2.80611E+07-8.73115E-11
 -1       104 1.11195E+08-2.88913E+07 5.82077E-11
 -1       105 1.17347E+08-2.85703E+07 1.45519E-10
 -1       106 1.15548E+08-2.76749E+07 1.16415E-10
 -1       107 1.07537E+08-2.70321E+07 2.91038E-11
 -1       108 9.48315E+07-2.85035E+07-8.73115E-11
 -1       109 7.86177E+07-3.25115E+07 1.16415E-10
 -1       110 5.82540E+07-4.49860E+07-3.63798E-12
 -1       111 5.64037E+07 5.57914E+05 7.27596E-12
 -1       112 7.83582E+07-1.55944E+07 3.63798E-12
 -1       113 1.05507E+08-3.63681E+07-7.27596E-11
 -1       114 1.51144E+08-5.46515E+07 0.00000E+00
 -1       115 1.90365E+08-5.92819E+07 1.16415E-10
 -1       116 2.10111E+08-5.81316E+07-1.16415E-10
 -1       117 2.13739E+08-5.53278E+07 0.00000E+00
 -1       118 2.05864E+08-5.38138E+07-5.82077E-11
 -1       119 1.86030E+08-5.41283E+07 5.82077E-11
 -1       120 1.55484E+08-5.86978E+07-5.82077E-11
 -1       121 1.24395E+08-7.57235E+07-1.45519E-11
 -1       122 4.98859E+07-9.98016E+07 1.09139E-11
 -1       123 7.28635E+05 4.82505E-08 3.63798E-12
 -1       124 3.36742E+06-9.31759E-08 3.20142E-10
 -1       125 1.67911E+06 1.92085E-08 9.45874E-11
 -1       126 3.21199E+05-1.07229E-09-4.54747E-12
 -1       127 4.92547E+06-6.38654E-07 2.91038E-11
 -1       128 1.41247E+06-1.25892E-05 3.85626E-10
 -1       129 2.76478E+06 2.48832E-06-4.87489E-10
 -1       130 9.95705E+06 1.81608E-07-3.49246E-10
 -1       131 1.06439E+07 4.11528E-08-7.56700E-10
 -1       132 4.42016E+06-4.35277E-07-2.32831E-10
 -1       133 2.13295E+06-1.78057E-07 1.01863E-10
 -1       134 1.19687E+06 6.38599E-06-7.42148E-10
 -1       135 6.49090E+06 1.84882E-07-2.91038E-10
 -1       136 4.43198E+06-1.12446E-06-2.91038E-11
 -1       137 7.25207E+06-1.73389E-06 1.16415E-10
 -1       138 5.05215E+05 3.59976E-06 5.27507E-11
 -1       139 6.66969E+06-2.75666E-06 7.27596E-10
 -1       140 3.08506E+06-4.21423E-07 2.91038E-10
 -1       141 2.29731E+06 4.24884E-08 8.73115E-11
 -1       142 2.92423E+06-1.11184E-07 3.05590E-10
 -1       143 1.19006E+06 3.37586E-08-1.09139E-11
 -1       144 6.91522E+05-9.92122E-09-3.63798E-12
 -1       145 3.05221E+06-5.95901E-08-2.18279E-11
 -1       146 1.03320E+06 1.80517E-08 1.09139E-11
 -1       147 1.02014E+07 1.81884E-06 0.00000E+00
 -1       148 5.26066E+06 1.13086E-05-9.74978E-10
 -1       149 4.05140E+06 1.97672E-06-5.23869E-10
 -1       150 7.04941E+06-5.01139E-07 3.05590E-09
 -1       151 9.09889E+06-8.19564E-08 2.91038E-10
 -1       152 8.03607E+06-1.15979E-08-5.82077E-11
 -1       153 7.72980E+06-1.04500E-06-6.98492E-10
 -1       154 9.00769E+06-4.47442E-07 1.16415E-10
 -1       155 6.37900E+06-9.48348E-08-2.91038E-11
 -1       156 6.81566E+06-7.63139E-08-2.91038E-11
 -1       157 5.35267E+06-4.32803E-07-5.52973E-10
 -1       158 5.77618E+06 5.27361E-08-2.91038E-11
 -1       159 6.82571E+06 1.98386E-07 2.91038E-10
 -1       160 7.64202E+06 3.00457E-07-5.82077E-11
 -1       161 6.22763E+06 6.93806E-07-2.61934E-10
 -1       162 8.98122E+06 4.75674E-07 6.98492E-10
 -1       163 9.01721E+06 1.94498E-06 5.82077E-11
 -1       164 9.41552E+06-2.99804E-06 2.91038E-11
 -1       165 9.54157E+06-1.03610E-06 2.32831E-10
 -1       166 7.66324E+06-5.32054E-08 6.40284E-10
 -1       167 4.92081E+06-5.12518E-08 8.73115E-11
 -1       168 5.35701E+06-1.34154E-06 3.78350E-10
 -1       169 6.25652E+06-2.88209E-06 6.40284E-10
 -1       170 3.93323E+06-8.03266E-09-2.91038E-11
 -1       171 5.67932E+06-2.20258E-07 0.00000E+00
 -1       172 8.47651E+06 2.14879E-06 7.56700E-10
 -1       173 7.56261E+06 1.65961E-06-4.36557E-10
 -1       174 9.22145E+06-6.00252E-06-9.31323E-10
 -1       175 9.10161E+06-6.54021E-07-2.91038E-10
 -1       176 4.33164E+06-3.79529E-07-3.78350E-10
 -1       177 5.87647E+06-4.91913E-07-1.74623E-10
 -1       178 3.62448E+06-8.16362E-08 3.63798E-10
 -1       179 4.15951E+06 1.08661E-06-2.32831E-10
 -1       180 6.28425E+06 3.62913E-06-6.40284E-10
 -1       181 5.33320E+06-7.48609E-07-3.20142E-10
 -1       182 9.72089E+06-9.90083E-06-5.82077E-10
 -1       183 1.11649E+07-8.04313E-06 5.23869E-10
 -1       184 6.18980E+06 1.09234E-07-5.82077E-11
 -1       185 7.73898E+06 2.01457E-07-8.73115E-11
 -1       186 5.44573E+05 2.27287E-06 8.00355E-11
 -1       187 7.02586E+05 1.61896E-06 3.81988E-10
 -1       188 1.79811E+06 8.86063E-06-2.23008E-09
 -1       189 5.20255E+05 3.09516E-06-9.27685E-11
 -1       190 8.41775E+06 1.54122E-06 1.28057E-09
 -1       191 8.87147E+06-2.33826E-06 1.86265E-09
 -1       192 8.20509E+06 1.88003E-07 6.40284E-10
 -1       193 4.13088E+06-1.01270E-06-2.32831E-10
 -1       194 3.52244E+06-1.26573E-06 1.45519E-10
 -1       195 3.32985E+06 3.67774E-07 4.65661E-10
 -1       196 2.86388E+06-2.15261E-06 2.47383E-10
 -1       197 5.65415E+06 1.27450E-06 7.85803E-10
 -1       198 6.70526E+06 1.41002E-06 1.45519E-10
 -1       199 3.53530E+06 2.90980E-07 1.30967E-10
 -1       200 2.69822E+06-1.76409E-06 2.91038E-11
 -1       201 3.96210E+06-2.41009E-07 5.38421E-10
 -1       202 1.72466E+06-6.34100E-09 4.72937E-11
 -1       203 2.41461E+06-3.95230E-08 7.27596E-12
 -1       204 2.45043E+06-6.35038E-07-1.89175E-10
 -1       205 2.79858E+06 1.12013E-07-5.82077E-11
 -1       206 2.14982E+06-7.18483E-07-1.52795E-10
 -1       207 2.96937E+06-3.46248E-07-2.18279E-10
 -1       208 4.59459E+05 2.97914E-08 7.27596E-12
 -1       209 6.06526E+05-3.22575E-09 3.63798E-12
 -1       210 8.26562E+05-2.58915E-08 5.45697E-12
 -1       211 2.82345E+06 2.70258E-07-1.30967E-10
 -1       212 1.90463E+06 6.44475E-07-1.09139E-10
 -1       213 1.29968E+06-2.84132E-06 7.13044E-10
 -1       214 2.12410E+06 5.69283E-06 5.56611E-10
 -1       215 2.37909E+06-6.00875E-06 7.93079E-10
 -1       216 1.86485E+06-5.23537E-06-5.49335E-10
 -1       217 8.10899E+05-5.88206E-06 7.60338E-10
 -1       218 1.59006E+06 4.60676E-06 2.05910E-09
 -1       219 9.31918E+05-2.79757E-06 5.36602E-10
 -1       220 4.32039E+06-2.53890E-06 2.91038E-10
 -1       221 6.43081E+05-9.73219E-06-3.17414E-10
 -1       222 2.45621E+06 7.85003E-06-8.22183E-10
 -1       223 1.70499E+06 2.00846E-07 0.00000E+00
 -1       224 2.29100E+06-2.38433E-07-2.91038E-11
 -1       225 1.32993E+06 5.64731E-07-6.54836E-11
 -1       226 3.39205E+06 1.83185E-05-3.16504E-09
 -1       227 2.69914E+05-3.15922E-08 2.27374E-12
 -1       228 3.29871E+05-7.39965E-09-2.72848E-12
 -1       229 2.30572E+05-2.81234E-08 0.00000E+00
 -1       230 9.97749E+05-5.51881E-09 0.00000E+00
 -1       231 1.08486E+06 2.42435E-08-5.45697E-12
 -1       232-1.49158E+07 2.12243E-06-2.15368E-09
 -1       233-1.10653E+07-1.03695E-06 2.03727E-09
 -1       234-7.80390E+06 4.56005E-06-1.41154E-09
 -1       235-2.24683E+07 1.73431E-06-2.91038E-09
 -1       236-1.71242E+07 2.62540E-06-1.62981E-09
 -1       237-2.28692E+07 4.44648E-07 1.33878E-09
 -1       238-1.27877E+07-8.10445E-06 4.36557E-10
 -1       239-1.32562E+07-2.15840E-06-2.03727E-10
 -1       240-8.34846E+06-3.63000E-06-9.31323E-10
 -1       241-6.76471E+06-5.36453E-06 7.13044E-10
 -1       242-1.78212E+07 2.91373E-07-3.49246E-10
 -1       243-1.94832E+07 2.18570E-07 1.16415E-10
 -1       244-1.70454E+07 2.82234E-08-1.16415E-10
 -1       245-1.71367E+07 1.14902E-07 6.98492E-10
 -1       246-2.05444E+07-7.58009E-08-3.49246E-10
 -1       247-1.89854E+07-6.41667E-08-1.16415E-10
 -1       248-1.65460E+07-1.29097E-07 3.49246E-10
 -1       249-1.65476E+07-5.52973E-09 3.49246E-10
 -1       250-1.42493E+07 8.67167E-08-1.16415E-10
 -1       251-1.41733E+07-1.44297E-07-5.82077E-11
 -1       252-1.10891E+07-2.16351E-07-1.74623E-10
 -1       253-9.60397E+06-2.06932E-07 2.32831E-10
 -1       254-9.76352E+06 1.48080E-07-1.16415E-10
 -1       255-1.40370E+07 3.97267E-09-2.91038E-10
 -1       256-1.33153E+07 1.95891E-07 0.00000E+00
 -1       257-1.46465E+07 9.94187E-08 0.00000E+00
 -1       258-1.49680E+07 1.04774E-07-1.16415E-10
 -1       259-1.16714E+07 2.36440E-07-5.82077E-11
 -1       260-1.13100E+07 3.73984E-07 5.82077E-11
 -1       261-9.39942E+06 1.16765E-07 1.16415E-10
 -1       262-1.30302E+07-7.17773E-07-3.49246E-10
 -1       263-1.42076E+07-1.37141E-07 1.16415E-10
 -1       264-1.61112E+07 9.42699E-07-1.16415E-10
 -1       265-1.06803E+07 1.77699E-07-1.74623E-10
 -1       266-1.12143E+07-2.07721E-07 2.32831E-10
 -1       267-1.18580E+07-4.34928E-07 1.16415E-10
 -1       268-1.45368E+07-2.50962E-07-4.65661E-10
 -1       269-1.59675E+07-6.49182E-07 3.49246E-10
 -1       270-1.62848E+07-4.37995E-06-1.16415E-09
 -1       271-1.79528E+07-3.10593E-06-5.82077E-10
 -1       272-1.70918E+07-2.07400E-06 1.92085E-09
 -1       273-1.58152E+07 3.62552E-06-2.91038E-10
 -1       274-1.86499E+07-2.17452E-06 2.67755E-09
 -1       275-1.95164E+07-1.07869E-06 1.16415E-10
 -1       276-2.10745E+07-5.34928E-07-1.86265E-09
 -1       277-2.01276E+07-1.90003E-06 6.98492E-10
 -1       278-2.02135E+07 1.69966E-08 3.49246E-10
 -1       279-1.80961E+07-2.00456E-06 5.82077E-10
 -1       280-1.50257E+07-6.30553E-07 0.00000E+00
 -1       281-1.40087E+07 1.00337E-06 0.00000E+00
 -1       282-1.09569E+07-1.08891E-06-9.31323E-10
 -1       283-1.13852E+07 7.96794E-07 0.00000E+00
 -1       284-1.68369E+07 3.02774E-07-1.16415E-10
 -1       285-1.40692E+07-2.64983E-07-1.74623E-10
 -1       286-1.04904E+07-3.37517E-07-4.65661E-10
 -1       287-1.10174E+07 1.50083E-06-1.16415E-10
 -1       288-8.04411E+06 5.43951E-07 7.56700E-10
 -1       289-8.29139E+06-1.17499E-06-5.82077E-10
 -1       290-1.38028E+07 3.65442E-07 0.00000E+00
 -1       291-1.15927E+07 1.06062E-07-1.16415E-10
 -1       292-9.06499E+06 1.80979E-07-5.82077E-11
 -1       293-1.11245E+07 5.14046E-08-5.82077E-11
 -1       294-6.95059E+06-5.97392E-08 7.27596E-11
 -1       295-5.27595E+06-5.20067E-08 2.91038E-11
 -1       296-8.91442E+06-2.47819E-08 2.91038E-11
 -1       297-5.51005E+06-4.50927E-09 1.45519E-11
 -1       298-1.77163E+07 5.79968E-07 1.04774E-09
 -1       299-1.93285E+07 2.78509E-06 1.16415E-09
 -1       300-1.89834E+07-1.00849E-06 2.67755E-09
 -1       301-1.61309E+07-2.61504E-06-6.98492E-10
 -1       302-1.70213E+07-1.61653E-06 5.82077E-10
 -1       303-1.69772E+07-1.83494E-06-4.65661E-10
 -1       304-1.46261E+07 1.18045E-07 5.82077E-10
 -1       305-1.85778E+07-9.40287E-07-3.49246E-10
 -1       306-1.69167E+07-1.70141E-06 2.09548E-09
 -1       307-1.91357E+07 4.43794E-06-9.31323E-10
 -1       308-8.48308E+06-1.79923E-06 8.14907E-10
 -1       309-7.42895E+06-9.67004E-07-4.65661E-10
 -1       310-8.54660E+06-3.71227E-07 5.82077E-11
 -1       311-6.75412E+06 2.41329E-07-1.74623E-10
 -1       312-7.18459E+06 6.90157E-07 3.49246E-10
 -1       313-8.09145E+06-1.92420E-07 3.49246E-10
 -1       314-1.12157E+07 4.82425E-07 5.23869E-10
 -1       315-9.20909E+06 4.83415E-07-5.82077E-10
 -1       316-1.19991E+07-5.47210E-07 0.00000E+00
 -1       317-8.19492E+06 4.64293E-07 2.91038E-10
 -1       318-9.06816E+06 7.74162E-08-2.32831E-10
 -1       319-9.59548E+06-5.26742E-07 2.91038E-10
 -1       320-1.06137E+07-3.38725E-07 6.98492E-10
 -1       321-1.17373E+07-1.52031E-06-5.23869E-10
 -1       322-1.55833E+07-3.16941E-08-9.31323E-10
 -1       323-1.22646E+07-2.07883E-06 5.82077E-11
 -1       324-2.08861E+07 1.87533E-06-6.40284E-10
 -1       325-2.11792E+07 4.88249E-06 2.91038E-10
 -1       326-2.59646E+07-7.21193E-08 3.49246E-10
 -1       327-1.70755E+07 1.06706E-06-1.10595E-09
 -1       328-1.86949E+07-9.98858E-07-2.21189E-09
 -1       329-2.34803E+07-1.09838E-06 4.65661E-10
 -1       330-1.36685E+07-3.54637E-07-1.74623E-10
 -1       331-1.60337E+07-4.22151E-08 1.16415E-10
 -1       332-1.68047E+07 5.90662E-08 0.00000E+00
 -1       333-1.24477E+07 4.43513E-07 0.00000E+00
 -1       334-1.41512E+07 7.14645E-08-5.82077E-11
 -1       335-1.49222E+07 1.94064E-07 1.16415E-10
 -1       336-9.54789E+05 2.99201E-06 1.90994E-10
 -1       337-1.11757E+06 4.82207E-07-1.84627E-09
 -1       338-3.90843E+06-2.19137E-05 3.44880E-09
 -1       339-9.02051E+05 2.71307E-06 5.25688E-10
 -1       340-9.63451E+05-2.29029E-06-2.81943E-10
 -1       341-1.12786E+06 8.15105E-06-6.73026E-11
 -1       342-1.31979E+06 2.63565E-06 3.67436E-10
 -1       343-1.12623E+06 4.28966E-06 6.22094E-10
 -1       344-1.39655E+06-1.31062E-06-6.58474E-10
 -1       345-2.65186E+06 1.22359E-05 6.98492E-10
 -1       346-1.71862E+07-3.68991E-07-2.32831E-10
 -1       347-1.71158E+07-3.62088E-08-4.65661E-10
 -1       348-1.64846E+07-3.21892E-07-1.16415E-09
 -1       349-1.63473E+07-2.15566E-06-1.51340E-09
 -1       350-1.74222E+07 4.99223E-06-4.01633E-09
 -1       351-1.81734E+07 2.33057E-06 1.28057E-09
 -1       352-1.72548E+07-4.54653E-07-4.65661E-10
 -1       353-1.79495E+07 1.99373E-06 1.80444E-09
 -1       354-1.46570E+07-1.35973E-07-1.16415E-10
 -1       355-1.78974E+07-4.17080E-07 1.16415E-10
 -1       356-1.49230E+07-1.34387E-07 1.16415E-10
 -1       357-1.81634E+07 2.68337E-08 2.32831E-10
 -1       358-6.47025E+06-1.04355E-06-1.74623E-10
 -1       359-5.17702E+06-8.41683E-08 2.91038E-11
 -1       360-5.27863E+06 1.64443E-06-5.82077E-11
 -1       361-6.54331E+06-8.59411E-07 1.16415E-10
 -1       362-7.43854E+06 2.43273E-06-5.23869E-10
 -1       363-6.17688E+06 1.67986E-06 8.73115E-11
 -1       364-8.22822E+06 1.70944E-06-1.16415E-10
 -1       365-6.27848E+06-8.20728E-09-6.11180E-10
 -1       366-6.29934E+06-1.38651E-07-1.16415E-10
 -1       367-5.72696E+06 3.03829E-07-2.32831E-10
 -1       368-1.39297E+07 2.80963E-06 1.16415E-09
 -1       369-1.67819E+07-6.15924E-07-7.56700E-10
 -1       370-1.00391E+07 5.45857E-07 3.49246E-10
 -1       371-9.34295E+06 9.14442E-07-2.91038E-10
 -1       372-1.28914E+07-2.68919E-07-8.14907E-10
 -1       373-1.38389E+07-2.44519E-06 3.49246E-10
 -1       374-8.09293E+06-1.25059E-07 8.73115E-11
 -1       375-7.81821E+06 1.81103E-07-2.91038E-10
 -1       376-9.40395E+06-5.05446E-07 0.00000E+00
 -1       377-6.32653E+06-7.88626E-07-8.73115E-11
 -1       378-5.05680E+06 5.17906E-07 7.27596E-11
 -1       379-6.44443E+06 5.11529E-07-1.74623E-10
 -1       380-4.79554E+06 3.27795E-07 1.30967E-10
 -1       381-8.03017E+06-2.95579E-07-5.82077E-11
 -1       382-4.73003E+06-3.98359E-08 1.45519E-11
 -1       383-4.80922E+06 1.98896E-07-1.01863E-10
 -1       384-4.76300E+06 4.76393E-08-2.91038E-11
 -1       385-3.35839E+06 2.05619E-08-7.27596E-12
 -1       386-4.72446E+06-1.43646E-08-4.36557E-11
 -1       387-3.68845E+06 6.62694E-08 2.91038E-11
 -1       388-4.63158E+06-2.11439E-08 5.82077E-11
 -1       389-5.65211E+06 1.05367E-06-1.16415E-10
 -1       390-5.41536E+06 6.24961E-07 8.73115E-11
 -1       391-4.12444E+06 4.14737E-07 2.03727E-10
 -1       392-5.22389E+06 7.47241E-09 1.89175E-10
 -1       393-6.46212E+06-4.25625E-08 1.74623E-10
 -1       394-6.54429E+06-7.68669E-08 5.82077E-11
 -1       395-6.22538E+06 2.90165E-08-8.73115E-11
 -1       396-5.32360E+06-2.78029E-07 4.36557E-11
 -1       397-4.47549E+06 4.85888E-08-1.30967E-10
 -1       398-7.62419E+05 5.28371E-08-3.63798E-12
 -1       399-1.17918E+06-5.58794E-09-3.63798E-12
 -1       400-1.65312E+06-3.33239E-09 2.18279E-11
 -1       401-1.02006E+06-1.35058E-08 0.00000E+00
 -1       402-7.98987E+05-5.60149E-08-7.27596E-12
 -1       403-1.93275E+06-1.91867E-08-3.63798E-12
 -1       404-1.65313E+06-2.51566E-09-1.81899E-11
 -1       405-2.40669E+06 1.53887E-09-5.09317E-11
 -1       406-2.12707E+06 2.28138E-08-7.27596E-12
 -1       407-1.51929E+06-5.07043E-10-1.09139E-11
 -1       408-3.74032E+06 4.12721E-07 2.32831E-10
 -1       409-4.17649E+06-8.58054E-08-1.16415E-10
 -1       410-5.59662E+06-3.40915E-06 3.78350E-10
 -1       411-3.44202E+06-1.80007E-08-1.89175E-10
 -1       412-4.54098E+06 7.66842E-07-1.45519E-10
 -1       413-3.87818E+06-1.28348E-07-7.27596E-11
 -1       414-2.21168E+06-3.12994E-06-1.20053E-10
 -1       415-3.13779E+06 2.33374E-06-2.40107E-10
 -1       416-3.57587E+06-6.37306E-06-1.66619E-09
 -1       417-3.45089E+06 3.65994E-06 1.81899E-10
 -1       418-2.59224E+06 5.06250E-06-1.45519E-11
 -1       419-3.53569E+06-1.13921E-05 1.99361E-09
 -1       420-3.88354E+06-3.99323E-06 1.09867E-09
 -1       421-4.96054E+06 4.05638E-06-2.73576E-09
 -1       422-4.32161E+06 2.05909E-06 4.36557E-10
 -1       423-5.06808E+06-3.48940E-07 8.73115E-11
 -1       424-1.86353E+06 1.74858E-06 1.30603E-09
 -1       425-2.09056E+06-1.09001E-05-2.25555E-09
 -1       426-2.82359E+06 2.05579E-07 8.29459E-10
 -1       427-1.63711E+06 6.97064E-06 4.62023E-10
 -1       428-1.48248E+06 1.84689E-07 7.78527E-10
 -1       429-1.86414E+06 1.16817E-05-9.02219E-10
 -1       430-1.85471E+06-1.15235E-05-6.91216E-11
 -1       431-3.05163E+06 1.32504E-06-6.91216E-10
 -1       432-7.27368E+06 3.87576E-07-2.91038E-10
 -1       433-7.51620E+06 1.61149E-07-2.91038E-11
 -1       434-9.76534E+06 1.44649E-06-1.33878E-09
 -1       435-1.00079E+07 1.78255E-06 1.28057E-09
 -1       436-1.14607E+06 2.05375E-06 7.18501E-10
 -1       437-1.14065E+06-6.02725E-06-8.76753E-10
 -1       438-1.43167E+06-8.15546E-07 3.41970E-10
 -1       439-1.42626E+06 2.34402E-07-1.05865E-09
 -1       440-5.18419E+06 1.83012E-07 1.32422E-09
 -1       441-3.99956E+06-1.28341E-05-1.33878E-09
 -1       442-5.78803E+06 1.16891E-05-5.82077E-11
 -1       443-4.62648E+06-5.46404E-06-2.59752E-09
 -1       444-5.27932E+06 1.52279E-07-2.91038E-11
 -1       445-5.30573E+06-9.76434E-09 0.00000E+00
 -1       446-3.85829E+06-1.58383E-07-1.45519E-11
 -1       447-2.57496E+06-3.34345E-07 2.18279E-11
 -1       448-3.88470E+06 5.77711E-08 0.00000E+00
 -1       449-3.82306E+06 2.26486E-07-8.73115E-11
 -1       450-3.18423E+06 2.29345E-07 1.01863E-10
 -1       451-2.59544E+06-1.07350E-06 1.74623E-10
 -1       452-2.72428E+06-3.32548E-08 2.91038E-11
 -1       453-2.13549E+06-3.20782E-07-5.09317E-11
 -1       454-8.12637E+06-3.72598E-06 6.54836E-09
 -1       455-7.80938E+06 5.92569E-06-2.06637E-09
 -1       456-5.75880E+06 1.30963E-06 3.20142E-10
 -1       457-5.44180E+06-5.09826E-06 3.63798E-10
 -1       458-6.85024E+05 2.88092E-08-1.81899E-12
 -1       459-8.29612E+05-3.31227E-09 5.45697E-12
 -1       460-4.89870E+05 4.87180E-08 3.63798E-12
 -1       461-4.04630E+05-7.07769E-09-2.72848E-12
 -1       462-6.34458E+05-2.70302E-08 2.72848E-12
 -1       463-6.33796E+05 9.16407E-09-9.09495E-12
 -1       464-5.20441E+05 4.17003E-09 4.54747E-12
 -1       465-4.97706E+05 2.19279E-09 3.63798E-12
 -1       466-1.51990E+06 8.01083E-09 0.00000E+00
 -1       467-4.24584E+05 4.25689E-08-4.54747E-12
 -1       468-4.01850E+05 2.13367E-09-9.09495E-13
 -1       469-1.46061E+06 2.97587E-09 1.81899E-12
 -1       470-2.57847E+06-2.43399E-08-1.45519E-11
 -1       471-2.09052E+06 1.38398E-08 7.27596E-12
 -1       472-2.09052E+06-3.20279E-09-3.63798E-12
 -1       473-2.57846E+06-8.83119E-09 7.27596E-12
 -1       474-2.09052E+06-2.43017E-09 0.00000E+00
 -1       475-2.27303E+06-3.32511E-08-1.45519E-11
 -1       476-2.27304E+06 2.81689E-08 1.45519E-11
 -1       477-2.27303E+06 1.22818E-08 1.45519E-11
 -3
 9999
