
 stresses (elem, integ.pnt.,sxx,syy,szz,sxy,sxz,syz) for set EALL and time  0.1000000E+01

         1   1 -1.976445E+05 -1.093452E+05 -6.139793E+04  2.619015E+04  2.117582E-11 -2.382280E-11
         1   2 -2.170044E+05 -1.129548E+05 -6.599184E+04  3.434064E+04  9.264423E-12 -9.264423E-12
         1   3 -2.364784E+05 -1.181515E+05 -7.092599E+04  4.317780E+04 -1.819797E-12 -3.705769E-11
         1   4 -2.011221E+05 -1.136071E+05 -6.294584E+04  2.389375E+04 -1.058791E-11  4.235165E-11
         1   5 -2.179036E+05 -1.187853E+05 -6.733778E+04  3.089176E+04 -2.646978E-12  2.117582E-11
         1   6 -2.348699E+05 -1.252336E+05 -7.202070E+04  3.876102E+04  1.919059E-11 -5.823352E-11
         1   7 -2.037712E+05 -1.176923E+05 -6.429270E+04  2.116736E+04 -1.058791E-11  0.000000E+00
         1   8 -2.175002E+05 -1.243763E+05 -6.837529E+04  2.720323E+04 -1.058791E-11 -8.470329E-11
         1   9 -2.316781E+05 -1.319878E+05 -7.273319E+04  3.428722E+04  3.970467E-12 -4.235165E-11
         1  10 -1.976445E+05 -1.093452E+05 -6.139793E+04  2.619015E+04  2.646978E-12  0.000000E+00
         1  11 -2.170044E+05 -1.129548E+05 -6.599184E+04  3.434064E+04 -2.646978E-12  1.058791E-11
         1  12 -2.364784E+05 -1.181515E+05 -7.092599E+04  4.317780E+04 -1.654361E-13  6.617445E-13
         1  13 -2.011221E+05 -1.136071E+05 -6.294584E+04  2.389375E+04  2.646978E-12  5.293956E-12
         1  14 -2.179036E+05 -1.187853E+05 -6.733778E+04  3.089176E+04  3.970467E-12  0.000000E+00
         1  15 -2.348699E+05 -1.252336E+05 -7.202070E+04  3.876102E+04  1.985233E-12 -4.632211E-12
         1  16 -2.037712E+05 -1.176923E+05 -6.429270E+04  2.116736E+04  1.323489E-12  2.646978E-12
         1  17 -2.175002E+05 -1.243763E+05 -6.837529E+04  2.720323E+04 -1.323489E-12 -7.940934E-12
         1  18 -2.316781E+05 -1.319878E+05 -7.273319E+04  3.428722E+04  1.654361E-12  5.293956E-12
         1  19 -1.976445E+05 -1.093452E+05 -6.139793E+04  2.619015E+04 -1.058791E-11  2.382280E-11
         1  20 -2.170044E+05 -1.129548E+05 -6.599184E+04  3.434064E+04 -9.264423E-12  5.161607E-11
         1  21 -2.364784E+05 -1.181515E+05 -7.092599E+04  4.317780E+04 -8.768114E-12  3.705769E-11
         1  22 -2.011221E+05 -1.136071E+05 -6.294584E+04  2.389375E+04  1.058791E-11  0.000000E+00
         1  23 -2.179036E+05 -1.187853E+05 -6.733778E+04  3.089176E+04  2.646978E-12  2.117582E-11
         1  24 -2.348699E+05 -1.252336E+05 -7.202070E+04  3.876102E+04 -1.919059E-11 -5.293956E-12
         1  25 -2.037712E+05 -1.176923E+05 -6.429270E+04  2.116736E+04 -1.058791E-11  0.000000E+00
         1  26 -2.175002E+05 -1.243763E+05 -6.837529E+04  2.720323E+04  0.000000E+00  4.235165E-11
         1  27 -2.316781E+05 -1.319878E+05 -7.273319E+04  3.428722E+04  1.720536E-11  2.117582E-11
         2   1 -2.508380E+05 -1.217520E+05 -7.451801E+04  4.941061E+04  1.323489E-12 -5.293956E-11
         2   2 -2.728163E+05 -1.276075E+05 -8.008477E+04  6.160797E+04  1.058791E-11 -3.176374E-11
         2   3 -2.944471E+05 -1.344299E+05 -8.577538E+04  7.432705E+04  1.960418E-11  4.499863E-11
         2   4 -2.424111E+05 -1.283258E+05 -7.414738E+04  4.440825E+04  2.117582E-11 -5.293956E-11
         2   5 -2.600770E+05 -1.360521E+05 -7.922583E+04  5.302832E+04 -7.940934E-12  4.764560E-11
         2   6 -2.773684E+05 -1.442669E+05 -8.432707E+04  6.292529E+04  1.852885E-11  4.102816E-11
         2   7 -2.418278E+05 -1.372510E+05 -7.581575E+04  3.803787E+04  2.117582E-11  0.000000E+00
         2   8 -2.519983E+05 -1.459366E+05 -7.958699E+04  4.357337E+04  2.646978E-11  3.176374E-11
         2   9 -2.624470E+05 -1.547590E+05 -8.344119E+04  5.113920E+04  1.058791E-11 -3.705769E-11
         2  10 -2.508380E+05 -1.217520E+05 -7.451801E+04  4.941061E+04  1.323489E-12 -2.646978E-12
         2  11 -2.728163E+05 -1.276075E+05 -8.008477E+04  6.160797E+04  6.617445E-13 -2.646978E-12
         2  12 -2.944471E+05 -1.344299E+05 -8.577538E+04  7.432705E+04  9.926167E-13  1.323489E-12
         2  13 -2.424111E+05 -1.283258E+05 -7.414738E+04  4.440825E+04  5.293956E-12  5.293956E-12
         2  14 -2.600770E+05 -1.360521E+05 -7.922583E+04  5.302832E+04 -2.646978E-12 -5.293956E-12
         2  15 -2.773684E+05 -1.442669E+05 -8.432707E+04  6.292529E+04 -5.955700E-12 -7.279189E-12
         2  16 -2.418278E+05 -1.372510E+05 -7.581575E+04  3.803787E+04  0.000000E+00 -5.293956E-12
         2  17 -2.519983E+05 -1.459366E+05 -7.958699E+04  4.357337E+04 -1.985233E-12 -7.940934E-12
         2  18 -2.624470E+05 -1.547590E+05 -8.344119E+04  5.113920E+04 -1.654361E-12  1.985233E-12
         2  19 -2.508380E+05 -1.217520E+05 -7.451801E+04  4.941061E+04 -1.191140E-11  5.293956E-11
         2  20 -2.728163E+05 -1.276075E+05 -8.008477E+04  6.160797E+04  0.000000E+00  1.058791E-11
         2  21 -2.944471E+05 -1.344299E+05 -8.577538E+04  7.432705E+04 -1.960418E-11 -2.382280E-11
         2  22 -2.424111E+05 -1.283258E+05 -7.414738E+04  4.440825E+04 -1.058791E-11 -1.058791E-11
         2  23 -2.600770E+05 -1.360521E+05 -7.922583E+04  5.302832E+04 -2.646978E-12  1.588187E-11
         2  24 -2.773684E+05 -1.442669E+05 -8.432707E+04  6.292529E+04  2.646978E-12  1.323489E-12
         2  25 -2.418278E+05 -1.372510E+05 -7.581575E+04  3.803787E+04 -1.058791E-11  0.000000E+00
         2  26 -2.519983E+05 -1.459366E+05 -7.958699E+04  4.357337E+04 -5.293956E-12 -3.176374E-11
         2  27 -2.624470E+05 -1.547590E+05 -8.344119E+04  5.113920E+04 -1.058791E-11 -5.293956E-12
         3   1 -2.395475E+05 -1.411220E+05 -7.613389E+04  3.208867E+04 -6.617445E-13 -1.058791E-11
         3   2 -2.492505E+05 -1.507973E+05 -8.000956E+04  3.808779E+04  6.617445E-12 -3.838118E-11
         3   3 -2.579869E+05 -1.595219E+05 -8.350178E+04  4.236775E+04 -1.654361E-12 -1.356576E-11
         3   4 -2.336928E+05 -1.446278E+05 -7.566411E+04  2.215328E+04  1.852885E-11  1.058791E-11
         3   5 -2.461316E+05 -1.536451E+05 -7.995534E+04  2.357978E+04 -9.264423E-12 -1.058791E-11
         3   6 -2.575713E+05 -1.622238E+05 -8.395901E+04  2.413482E+04  9.595295E-12 -1.720536E-11
         3   7 -2.386636E+05 -1.502609E+05 -7.778490E+04  1.262430E+04  0.000000E+00  0.000000E+00
         3   8 -2.497759E+05 -1.577401E+05 -8.150320E+04  9.295272E+03 -2.646978E-12 -2.117582E-11
         3   9 -2.609540E+05 -1.655664E+05 -8.530409E+04  6.050537E+03  1.323489E-11 -7.940934E-12
         3  10 -2.395475E+05 -1.411220E+05 -7.613389E+04  3.208867E+04 -6.617445E-13  0.000000E+00
         3  11 -2.492505E+05 -1.507973E+05 -8.000956E+04  3.808779E+04  1.323489E-12  1.323489E-12
         3  12 -2.579869E+05 -1.595219E+05 -8.350178E+04  4.236775E+04 -2.481542E-13  0.000000E+00
         3  13 -2.336928E+05 -1.446278E+05 -7.566411E+04  2.215328E+04 -2.646978E-12  5.293956E-12
         3  14 -2.461316E+05 -1.536451E+05 -7.995534E+04  2.357978E+04  0.000000E+00 -2.646978E-12
         3  15 -2.575713E+05 -1.622238E+05 -8.395901E+04  2.413482E+04  3.308722E-13  1.389663E-11
         3  16 -2.386636E+05 -1.502609E+05 -7.778490E+04  1.262430E+04 -6.617445E-13 -2.646978E-12
         3  17 -2.497759E+05 -1.577401E+05 -8.150320E+04  9.295272E+03  2.646978E-12  5.293956E-12
         3  18 -2.609540E+05 -1.655664E+05 -8.530409E+04  6.050537E+03  5.790264E-13  3.639595E-12
         3  19 -2.395475E+05 -1.411220E+05 -7.613389E+04  3.208867E+04 -9.926167E-12  1.058791E-11
         3  20 -2.492505E+05 -1.507973E+05 -8.000956E+04  3.808779E+04 -6.617445E-12  1.720536E-11
         3  21 -2.579869E+05 -1.595219E+05 -8.350178E+04  4.236775E+04  1.654361E-12 -7.610062E-12
         3  22 -2.336928E+05 -1.446278E+05 -7.566411E+04  2.215328E+04  2.646978E-12  1.058791E-11
         3  23 -2.461316E+05 -1.536451E+05 -7.995534E+04  2.357978E+04  9.264423E-12  1.058791E-11
         3  24 -2.575713E+05 -1.622238E+05 -8.395901E+04  2.413482E+04 -4.301339E-12 -2.514629E-11
         3  25 -2.386636E+05 -1.502609E+05 -7.778490E+04  1.262430E+04  5.293956E-12  0.000000E+00
         3  26 -2.497759E+05 -1.577401E+05 -8.150320E+04  9.295272E+03 -7.940934E-12  0.000000E+00
         3  27 -2.609540E+05 -1.655664E+05 -8.530409E+04  6.050537E+03  2.646978E-12 -1.323489E-11
         4   1 -2.044763E+05 -1.205403E+05 -6.500333E+04  1.954451E+04 -1.389663E-11  0.000000E+00
         4   2 -2.173166E+05 -1.273719E+05 -6.893771E+04  2.446638E+04  3.308722E-12  3.970467E-12
         4   3 -2.300651E+05 -1.350524E+05 -7.302349E+04  2.884802E+04  3.341810E-11 -2.084495E-11
         4   4 -2.049804E+05 -1.239203E+05 -6.578014E+04  1.615245E+04  2.646978E-12 -1.058791E-11
         4   5 -2.180338E+05 -1.315356E+05 -6.991386E+04  1.867939E+04 -2.646978E-12  3.176374E-11
         4   6 -2.311189E+05 -1.401898E+05 -7.426175E+04  2.117875E+04  2.514629E-11  4.896909E-11
         4   7 -2.074442E+05 -1.277868E+05 -6.704620E+04  1.279075E+04  2.117582E-11  0.000000E+00
         4   8 -2.191772E+05 -1.358231E+05 -7.100006E+04  1.281329E+04 -7.940934E-12  1.058791E-11
         4   9 -2.316973E+05 -1.452570E+05 -7.539086E+04  1.342593E+04  1.588187E-11  1.852885E-11
         4  10 -2.044763E+05 -1.205403E+05 -6.500333E+04  1.954451E+04  1.323489E-12  0.000000E+00
         4  11 -2.173166E+05 -1.273719E+05 -6.893771E+04  2.446638E+04 -2.646978E-12  0.000000E+00
         4  12 -2.300651E+05 -1.350524E+05 -7.302349E+04  2.884802E+04 -1.488925E-12  5.955700E-12
         4  13 -2.049804E+05 -1.239203E+05 -6.578014E+04  1.615245E+04  0.000000E+00  5.293956E-12
         4  14 -2.180338E+05 -1.315356E+05 -6.991386E+04  1.867939E+04 -7.940934E-12  0.000000E+00
         4  15 -2.311189E+05 -1.401898E+05 -7.426175E+04  2.117875E+04 -1.654361E-12  6.617445E-13
         4  16 -2.074442E+05 -1.277868E+05 -6.704620E+04  1.279075E+04  0.000000E+00 -2.646978E-12
         4  17 -2.191772E+05 -1.358231E+05 -7.100006E+04  1.281329E+04  0.000000E+00 -1.323489E-12
         4  18 -2.316973E+05 -1.452570E+05 -7.539086E+04  1.342593E+04 -3.308722E-13 -3.308722E-13
         4  19 -2.044763E+05 -1.205403E+05 -6.500333E+04  1.954451E+04  2.448455E-11  2.117582E-11
         4  20 -2.173166E+05 -1.273719E+05 -6.893771E+04  2.446638E+04  7.279189E-12 -3.970467E-12
         4  21 -2.300651E+05 -1.350524E+05 -7.302349E+04  2.884802E+04 -1.224227E-11  6.319660E-11
         4  22 -2.049804E+05 -1.239203E+05 -6.578014E+04  1.615245E+04 -1.323489E-11  1.058791E-11
         4  23 -2.180338E+05 -1.315356E+05 -6.991386E+04  1.867939E+04 -7.940934E-12  1.058791E-11
         4  24 -2.311189E+05 -1.401898E+05 -7.426175E+04  2.117875E+04 -1.455838E-11 -6.617445E-12
         4  25 -2.074442E+05 -1.277868E+05 -6.704620E+04  1.279075E+04 -1.058791E-11  2.117582E-11
         4  26 -2.191772E+05 -1.358231E+05 -7.100006E+04  1.281329E+04 -1.323489E-11 -1.058791E-11
         4  27 -2.316973E+05 -1.452570E+05 -7.539086E+04  1.342593E+04 -5.293956E-12  2.646978E-12
         5   1 -5.641871E+05 -2.060778E+05 -1.540530E+05  1.859133E+05  8.933551E-12 -2.646978E-12
         5   2 -5.867656E+05 -1.880473E+05 -1.549626E+05  1.800247E+05  1.654361E-13 -5.624828E-12
         5   3 -6.100892E+05 -1.729664E+05 -1.566111E+05  1.740191E+05 -3.391441E-12 -2.109311E-12
         5   4 -5.680507E+05 -1.981957E+05 -1.532493E+05  1.817936E+05  1.323489E-12  2.646978E-12
         5   5 -5.899710E+05 -1.829399E+05 -1.545822E+05  1.774936E+05  0.000000E+00  1.323489E-12
         5   6 -6.126047E+05 -1.705148E+05 -1.566239E+05  1.730232E+05  1.488925E-12  1.158053E-12
         5   7 -5.661576E+05 -1.881369E+05 -1.508589E+05  1.760875E+05  7.940934E-12  0.000000E+00
         5   8 -5.877036E+05 -1.759324E+05 -1.527272E+05  1.736062E+05  1.323489E-12  0.000000E+00
         5   9 -6.099040E+05 -1.664017E+05 -1.552612E+05  1.708756E+05 -1.985233E-12 -1.323489E-12
         5  10 -5.641871E+05 -2.060778E+05 -1.540530E+05  1.859133E+05  0.000000E+00  0.000000E+00
         5  11 -5.867656E+05 -1.880473E+05 -1.549626E+05  1.800247E+05 -6.617445E-13 -1.654361E-13
         5  12 -6.100892E+05 -1.729664E+05 -1.566111E+05  1.740191E+05 -8.271806E-14  2.481542E-13
         5  13 -5.680507E+05 -1.981957E+05 -1.532493E+05  1.817936E+05  0.000000E+00  0.000000E+00
         5  14 -5.899710E+05 -1.829399E+05 -1.545822E+05  1.774936E+05 -6.617445E-13 -6.617445E-13
         5  15 -6.126047E+05 -1.705148E+05 -1.566239E+05  1.730232E+05  9.926167E-13 -8.271806E-13
         5  16 -5.661576E+05 -1.881369E+05 -1.508589E+05  1.760875E+05  0.000000E+00 -6.617445E-13
         5  17 -5.877036E+05 -1.759324E+05 -1.527272E+05  1.736062E+05  6.617445E-13 -3.308722E-13
         5  18 -6.099040E+05 -1.664017E+05 -1.552612E+05  1.708756E+05 -8.271806E-14 -8.271806E-14
         5  19 -5.641871E+05 -2.060778E+05 -1.540530E+05  1.859133E+05 -3.639595E-12 -2.646978E-12
         5  20 -5.867656E+05 -1.880473E+05 -1.549626E+05  1.800247E+05  2.481542E-12  2.977850E-12
         5  21 -6.100892E+05 -1.729664E+05 -1.566111E+05  1.740191E+05 -1.902515E-12 -5.376674E-13
         5  22 -5.680507E+05 -1.981957E+05 -1.532493E+05  1.817936E+05 -1.323489E-12  0.000000E+00
         5  23 -5.899710E+05 -1.829399E+05 -1.545822E+05  1.774936E+05  0.000000E+00 -1.323489E-12
         5  24 -6.126047E+05 -1.705148E+05 -1.566239E+05  1.730232E+05 -1.488925E-12  1.654361E-13
         5  25 -5.661576E+05 -1.881369E+05 -1.508589E+05  1.760875E+05 -2.646978E-12  0.000000E+00
         5  26 -5.877036E+05 -1.759324E+05 -1.527272E+05  1.736062E+05 -1.323489E-12  0.000000E+00
         5  27 -6.099040E+05 -1.664017E+05 -1.552612E+05  1.708756E+05  1.985233E-12  1.323489E-12
         6   1 -6.256559E+05 -1.669063E+05 -1.585124E+05  1.721090E+05 -1.654361E-13 -8.271806E-13
         6   2 -6.499121E+05 -1.635513E+05 -1.626927E+05  1.717401E+05  1.737079E-12 -9.098987E-13
         6   3 -6.761707E+05 -1.682672E+05 -1.688876E+05  1.713569E+05  6.203855E-14  4.549493E-13
         6   4 -6.280365E+05 -1.652736E+05 -1.586620E+05  1.715982E+05  1.323489E-12  0.000000E+00
         6   5 -6.506638E+05 -1.620113E+05 -1.625350E+05  1.707076E+05  6.617445E-13 -9.926167E-13
         6   6 -6.755066E+05 -1.676166E+05 -1.686247E+05  1.698035E+05 -4.135903E-13 -4.135903E-13
         6   7 -6.239831E+05 -1.619727E+05 -1.571912E+05  1.705839E+05  2.646978E-12 -1.323489E-12
         6   8 -6.452324E+05 -1.588375E+05 -1.608140E+05  1.690294E+05  1.985233E-12  1.323489E-12
         6   9 -6.689157E+05 -1.654545E+05 -1.668740E+05  1.674731E+05  3.308722E-13 -3.308722E-13
         6  10 -6.256559E+05 -1.669063E+05 -1.585124E+05  1.721090E+05 -1.654361E-13  0.000000E+00
         6  11 -6.499121E+05 -1.635513E+05 -1.626927E+05  1.717401E+05  0.000000E+00  0.000000E+00
         6  12 -6.761707E+05 -1.682672E+05 -1.688876E+05  1.713569E+05  1.033976E-13  0.000000E+00
         6  13 -6.280365E+05 -1.652736E+05 -1.586620E+05  1.715982E+05  0.000000E+00 -3.308722E-13
         6  14 -6.506638E+05 -1.620113E+05 -1.625350E+05  1.707076E+05 -6.617445E-13  1.654361E-13
         6  15 -6.755066E+05 -1.676166E+05 -1.686247E+05  1.698035E+05  8.271806E-14  1.240771E-13
         6  16 -6.239831E+05 -1.619727E+05 -1.571912E+05  1.705839E+05  0.000000E+00  0.000000E+00
         6  17 -6.452324E+05 -1.588375E+05 -1.608140E+05  1.690294E+05  0.000000E+00  0.000000E+00
         6  18 -6.689157E+05 -1.654545E+05 -1.668740E+05  1.674731E+05 -6.203855E-14 -2.067952E-14
         6  19 -6.256559E+05 -1.669063E+05 -1.585124E+05  1.721090E+05 -1.158053E-12  8.271806E-13
         6  20 -6.499121E+05 -1.635513E+05 -1.626927E+05  1.717401E+05  9.098987E-13  2.481542E-13
         6  21 -6.761707E+05 -1.682672E+05 -1.688876E+05  1.713569E+05  1.033976E-13  4.135903E-14
         6  22 -6.280365E+05 -1.652736E+05 -1.586620E+05  1.715982E+05  1.323489E-12  1.323489E-12
         6  23 -6.506638E+05 -1.620113E+05 -1.625350E+05  1.707076E+05 -6.617445E-13 -3.308722E-13
         6  24 -6.755066E+05 -1.676166E+05 -1.686247E+05  1.698035E+05 -2.481542E-13 -8.271806E-14
         6  25 -6.239831E+05 -1.619727E+05 -1.571912E+05  1.705839E+05 -1.323489E-12  0.000000E+00
         6  26 -6.452324E+05 -1.588375E+05 -1.608140E+05  1.690294E+05 -1.985233E-12  0.000000E+00
         6  27 -6.689157E+05 -1.654545E+05 -1.668740E+05  1.674731E+05 -1.654361E-13  0.000000E+00
         7   1 -6.192066E+05 -1.611483E+05 -1.560710E+05  1.705359E+05  2.481542E-12 -4.963084E-13
         7   2 -6.403187E+05 -1.607876E+05 -1.602213E+05  1.684402E+05  1.240771E-12  2.481542E-13
         7   3 -6.626299E+05 -1.652206E+05 -1.655701E+05  1.664294E+05  2.895132E-13 -1.033976E-14
         7   4 -6.079859E+05 -1.599245E+05 -1.535821E+05  1.701023E+05  6.617445E-13 -1.323489E-12
         7   5 -6.272186E+05 -1.580874E+05 -1.570612E+05  1.677760E+05  9.926167E-13 -9.926167E-13
         7   6 -6.477780E+05 -1.615748E+05 -1.618706E+05  1.656021E+05  1.654361E-13  0.000000E+00
         7   7 -5.915426E+05 -1.575764E+05 -1.498238E+05  1.699291E+05  0.000000E+00  6.617445E-13
         7   8 -6.089933E+05 -1.541596E+05 -1.526306E+05  1.672581E+05  6.617445E-13  0.000000E+00
         7   9 -6.279066E+05 -1.566775E+05 -1.569168E+05  1.648260E+05  4.963084E-13 -2.481542E-13
         7  10 -6.192066E+05 -1.611483E+05 -1.560710E+05  1.705359E+05  1.654361E-13 -1.654361E-13
         7  11 -6.403187E+05 -1.607876E+05 -1.602213E+05  1.684402E+05  0.000000E+00  0.000000E+00
         7  12 -6.626299E+05 -1.652206E+05 -1.655701E+05  1.664294E+05  1.033976E-13  0.000000E+00
         7  13 -6.079859E+05 -1.599245E+05 -1.535821E+05  1.701023E+05  0.000000E+00  0.000000E+00
         7  14 -6.272186E+05 -1.580874E+05 -1.570612E+05  1.677760E+05  0.000000E+00  0.000000E+00
         7  15 -6.477780E+05 -1.615748E+05 -1.618706E+05  1.656021E+05  0.000000E+00  4.135903E-14
         7  16 -5.915426E+05 -1.575764E+05 -1.498238E+05  1.699291E+05 -3.308722E-13  0.000000E+00
         7  17 -6.089933E+05 -1.541596E+05 -1.526306E+05  1.672581E+05  0.000000E+00  8.271806E-14
         7  18 -6.279066E+05 -1.566775E+05 -1.569168E+05  1.648260E+05 -6.203855E-14  4.135903E-14
         7  19 -6.192066E+05 -1.611483E+05 -1.560710E+05  1.705359E+05 -3.805031E-12 -8.271806E-13
         7  20 -6.403187E+05 -1.607876E+05 -1.602213E+05  1.684402E+05 -5.790264E-13  1.075335E-12
         7  21 -6.626299E+05 -1.652206E+05 -1.655701E+05  1.664294E+05  4.135903E-14  1.033976E-14
         7  22 -6.079859E+05 -1.599245E+05 -1.535821E+05  1.701023E+05 -1.985233E-12  0.000000E+00
         7  23 -6.272186E+05 -1.580874E+05 -1.570612E+05  1.677760E+05 -3.308722E-13 -3.308722E-13
         7  24 -6.477780E+05 -1.615748E+05 -1.618706E+05  1.656021E+05 -1.654361E-13  0.000000E+00
         7  25 -5.915426E+05 -1.575764E+05 -1.498238E+05  1.699291E+05  0.000000E+00  6.617445E-13
         7  26 -6.089933E+05 -1.541596E+05 -1.526306E+05  1.672581E+05  0.000000E+00  0.000000E+00
         7  27 -6.279066E+05 -1.566775E+05 -1.569168E+05  1.648260E+05 -3.308722E-13  2.481542E-13
         8   1 -5.636124E+05 -1.852450E+05 -1.497715E+05  1.744840E+05  0.000000E+00 -9.926167E-13
         8   2 -5.842406E+05 -1.729756E+05 -1.514432E+05  1.724698E+05 -4.301339E-12 -4.632211E-12
         8   3 -6.056435E+05 -1.637341E+05 -1.538755E+05  1.706670E+05  8.685396E-13  1.075335E-12
         8   4 -5.571335E+05 -1.814062E+05 -1.477079E+05  1.731983E+05  0.000000E+00 -1.323489E-12
         8   5 -5.760523E+05 -1.706737E+05 -1.493452E+05  1.718501E+05 -1.323489E-12  1.323489E-12
         8   6 -5.957636E+05 -1.629535E+05 -1.517434E+05  1.707815E+05 -1.158053E-12 -1.654361E-12
         8   7 -5.458192E+05 -1.758060E+05 -1.443250E+05  1.706607E+05  5.293956E-12 -3.970467E-12
         8   8 -5.630637E+05 -1.667667E+05 -1.459661E+05  1.701394E+05  0.000000E+00 -1.323489E-12
         8   9 -5.811178E+05 -1.607063E+05 -1.483648E+05  1.699601E+05  2.977850E-12 -1.323489E-12
         8  10 -5.636124E+05 -1.852450E+05 -1.497715E+05  1.744840E+05  0.000000E+00 -3.308722E-13
         8  11 -5.842406E+05 -1.729756E+05 -1.514432E+05  1.724698E+05 -4.963084E-13  3.308722E-13
         8  12 -6.056435E+05 -1.637341E+05 -1.538755E+05  1.706670E+05 -4.549493E-13 -2.067952E-13
         8  13 -5.571335E+05 -1.814062E+05 -1.477079E+05  1.731983E+05  0.000000E+00  6.617445E-13
         8  14 -5.760523E+05 -1.706737E+05 -1.493452E+05  1.718501E+05  0.000000E+00  6.617445E-13
         8  15 -5.957636E+05 -1.629535E+05 -1.517434E+05  1.707815E+05 -8.271806E-13 -7.444626E-13
         8  16 -5.458192E+05 -1.758060E+05 -1.443250E+05  1.706607E+05  6.617445E-13  0.000000E+00
         8  17 -5.630637E+05 -1.667667E+05 -1.459661E+05  1.701394E+05 -9.926167E-13 -3.308722E-13
         8  18 -5.811178E+05 -1.607063E+05 -1.483648E+05  1.699601E+05  6.203855E-13  4.135903E-14
         8  19 -5.636124E+05 -1.852450E+05 -1.497715E+05  1.744840E+05  0.000000E+00  9.926167E-13
         8  20 -5.842406E+05 -1.729756E+05 -1.514432E+05  1.724698E+05 -9.926167E-13 -3.308722E-12
         8  21 -6.056435E+05 -1.637341E+05 -1.538755E+05  1.706670E+05 -6.162496E-12  2.481542E-13
         8  22 -5.571335E+05 -1.814062E+05 -1.477079E+05  1.731983E+05 -2.646978E-12 -1.323489E-12
         8  23 -5.760523E+05 -1.706737E+05 -1.493452E+05  1.718501E+05  1.323489E-12 -1.323489E-12
         8  24 -5.957636E+05 -1.629535E+05 -1.517434E+05  1.707815E+05 -1.488925E-12 -9.926167E-13
         8  25 -5.458192E+05 -1.758060E+05 -1.443250E+05  1.706607E+05 -2.646978E-12  3.970467E-12
         8  26 -5.630637E+05 -1.667667E+05 -1.459661E+05  1.701394E+05 -2.646978E-12  1.323489E-12
         8  27 -5.811178E+05 -1.607063E+05 -1.483648E+05  1.699601E+05 -3.308722E-13  2.646978E-12
         9   1 -4.512691E+05 -4.024263E+05 -1.707391E+05  3.004463E+05 -9.926167E-12  1.091878E-11
         9   2 -3.637740E+05 -4.132353E+05 -1.554019E+05  2.603738E+05 -1.158053E-11  6.948317E-12
         9   3 -2.874879E+05 -3.847993E+05 -1.344575E+05  2.160717E+05 -9.471218E-12  6.906958E-12
         9   4 -4.369698E+05 -3.359301E+05 -1.545800E+05  2.485406E+05 -7.940934E-12  4.632211E-12
         9   5 -3.914621E+05 -3.350418E+05 -1.453008E+05  2.236028E+05  1.323489E-12 -2.646978E-12
         9   6 -3.540570E+05 -3.109501E+05 -1.330014E+05  1.977458E+05 -4.632211E-12  2.977850E-12
         9   7 -4.526964E+05 -3.085183E+05 -1.522429E+05  2.169195E+05 -5.293956E-12  1.323489E-12
         9   8 -4.374316E+05 -2.844825E+05 -1.443828E+05  1.999731E+05 -3.970467E-12  5.293956E-12
         9   9 -4.249864E+05 -2.494277E+05 -1.348828E+05  1.836878E+05 -6.617445E-13  2.812414E-12
         9  10 -4.512691E+05 -4.024263E+05 -1.707391E+05  3.004463E+05 -3.308722E-13  0.000000E+00
         9  11 -3.637740E+05 -4.132353E+05 -1.554019E+05  2.603738E+05 -1.654361E-13  6.617445E-13
         9  12 -2.874879E+05 -3.847993E+05 -1.344575E+05  2.160717E+05  2.481542E-13 -5.376674E-13
         9  13 -4.369698E+05 -3.359301E+05 -1.545800E+05  2.485406E+05  6.617445E-13  0.000000E+00
         9  14 -3.914621E+05 -3.350418E+05 -1.453008E+05  2.236028E+05 -6.617445E-13  0.000000E+00
         9  15 -3.540570E+05 -3.109501E+05 -1.330014E+05  1.977458E+05 -5.790264E-13 -1.654361E-13
         9  16 -4.526964E+05 -3.085183E+05 -1.522429E+05  2.169195E+05 -3.308722E-13  0.000000E+00
         9  17 -4.374316E+05 -2.844825E+05 -1.443828E+05  1.999731E+05  4.963084E-13  1.654361E-13
         9  18 -4.249864E+05 -2.494277E+05 -1.348828E+05  1.836878E+05 -6.617445E-13 -8.271806E-14
         9  19 -4.512691E+05 -4.024263E+05 -1.707391E+05  3.004463E+05  9.926167E-12 -2.977850E-12
         9  20 -3.637740E+05 -4.132353E+05 -1.554019E+05  2.603738E+05  8.933551E-12 -6.948317E-12
         9  21 -2.874879E+05 -3.847993E+05 -1.344575E+05  2.160717E+05  9.471218E-12 -6.906958E-12
         9  22 -4.369698E+05 -3.359301E+05 -1.545800E+05  2.485406E+05  5.293956E-12 -4.632211E-12
         9  23 -3.914621E+05 -3.350418E+05 -1.453008E+05  2.236028E+05 -1.323489E-12  2.646978E-12
         9  24 -3.540570E+05 -3.109501E+05 -1.330014E+05  1.977458E+05  4.632211E-12 -4.301339E-12
         9  25 -4.526964E+05 -3.085183E+05 -1.522429E+05  2.169195E+05  5.293956E-12 -1.323489E-12
         9  26 -4.374316E+05 -2.844825E+05 -1.443828E+05  1.999731E+05  6.617445E-12 -5.293956E-12
         9  27 -4.249864E+05 -2.494277E+05 -1.348828E+05  1.836878E+05  3.308722E-12 -2.812414E-12
        10   1 -2.419724E+05 -3.589766E+05 -1.201898E+05  1.834178E+05 -9.926167E-12  6.617445E-12
        10   2 -1.961608E+05 -3.202329E+05 -1.032788E+05  1.349944E+05 -7.527344E-12  7.692780E-12
        10   3 -1.603361E+05 -2.708550E+05 -8.623823E+04  9.062926E+04 -5.666187E-12  6.720842E-12
        10   4 -3.343707E+05 -2.968367E+05 -1.262415E+05  1.832765E+05 -7.940934E-12  5.955700E-12
        10   5 -2.999007E+05 -2.728791E+05 -1.145560E+05  1.563847E+05 -1.654361E-12  9.926167E-13
        10   6 -2.732184E+05 -2.425217E+05 -1.031480E+05  1.306457E+05 -2.895132E-12  3.805031E-12
        10   7 -4.120318E+05 -2.353294E+05 -1.294722E+05  1.770788E+05 -9.264423E-12 -1.323489E-12
        10   8 -3.815221E+05 -2.141550E+05 -1.191354E+05  1.661159E+05 -3.308722E-12  3.308722E-12
        10   9 -3.576145E+05 -1.906672E+05 -1.096563E+05  1.537988E+05 -2.481542E-12  3.143286E-12
        10  10 -2.419724E+05 -3.589766E+05 -1.201898E+05  1.834178E+05  0.000000E+00  0.000000E+00
        10  11 -1.961608E+05 -3.202329E+05 -1.032788E+05  1.349944E+05 -3.308722E-13  0.000000E+00
        10  12 -1.603361E+05 -2.708550E+05 -8.623823E+04  9.062926E+04  4.135903E-14  1.033976E-13
        10  13 -3.343707E+05 -2.968367E+05 -1.262415E+05  1.832765E+05  0.000000E+00  6.617445E-13
        10  14 -2.999007E+05 -2.728791E+05 -1.145560E+05  1.563847E+05  6.617445E-13  0.000000E+00
        10  15 -2.732184E+05 -2.425217E+05 -1.031480E+05  1.306457E+05  3.308722E-13 -4.549493E-13
        10  16 -4.120318E+05 -2.353294E+05 -1.294722E+05  1.770788E+05  0.000000E+00 -1.654361E-13
        10  17 -3.815221E+05 -2.141550E+05 -1.191354E+05  1.661159E+05 -1.654361E-13  2.481542E-13
        10  18 -3.576145E+05 -1.906672E+05 -1.096563E+05  1.537988E+05  3.101927E-13 -2.274747E-13
        10  19 -2.419724E+05 -3.589766E+05 -1.201898E+05  1.834178E+05  1.257315E-11 -7.940934E-12
        10  20 -1.961608E+05 -3.202329E+05 -1.032788E+05  1.349944E+05  7.527344E-12 -6.369291E-12
        10  21 -1.603361E+05 -2.708550E+05 -8.623823E+04  9.062926E+04  6.989676E-12 -6.720842E-12
        10  22 -3.343707E+05 -2.968367E+05 -1.262415E+05  1.832765E+05  7.940934E-12 -4.632211E-12
        10  23 -2.999007E+05 -2.728791E+05 -1.145560E+05  1.563847E+05 -9.926167E-13 -9.926167E-13
        10  24 -2.732184E+05 -2.425217E+05 -1.031480E+05  1.306457E+05  4.218621E-12 -2.481542E-12
        10  25 -4.120318E+05 -2.353294E+05 -1.294722E+05  1.770788E+05  6.617445E-12 -1.323489E-12
        10  26 -3.815221E+05 -2.141550E+05 -1.191354E+05  1.661159E+05  3.308722E-12 -1.985233E-12
        10  27 -3.576145E+05 -1.906672E+05 -1.096563E+05  1.537988E+05  2.481542E-12 -1.819797E-12
        11   1 -4.355551E+05 -2.163065E+05 -1.303723E+05  1.740020E+05 -3.970467E-12  7.444626E-13
        11   2 -4.197680E+05 -1.998186E+05 -1.239173E+05  1.637998E+05 -1.571643E-12  9.926167E-13
        11   3 -4.062922E+05 -1.759861E+05 -1.164557E+05  1.542496E+05 -2.295426E-12  8.065011E-13
        11   4 -4.791383E+05 -1.902689E+05 -1.338815E+05  1.702588E+05  6.617445E-13  3.308722E-13
        11   5 -4.747124E+05 -1.762633E+05 -1.301951E+05  1.661573E+05 -3.308722E-13  3.308722E-13
        11   6 -4.710998E+05 -1.563261E+05 -1.254852E+05  1.621269E+05 -1.985233E-12  7.444626E-13
        11   7 -5.238774E+05 -1.694547E+05 -1.386664E+05  1.680115E+05 -1.323489E-12  6.617445E-13
        11   8 -5.281042E+05 -1.540761E+05 -1.364361E+05  1.680814E+05 -1.985233E-12  0.000000E+00
        11   9 -5.322931E+05 -1.350200E+05 -1.334626E+05  1.680908E+05 -4.963084E-13  2.481542E-13
        11  10 -4.355551E+05 -2.163065E+05 -1.303723E+05  1.740020E+05  1.654361E-13  0.000000E+00
        11  11 -4.197680E+05 -1.998186E+05 -1.239173E+05  1.637998E+05 -8.271806E-14 -2.481542E-13
        11  12 -4.062922E+05 -1.759861E+05 -1.164557E+05  1.542496E+05 -1.033976E-13 -1.654361E-13
        11  13 -4.791383E+05 -1.902689E+05 -1.338815E+05  1.702588E+05 -6.617445E-13  0.000000E+00
        11  14 -4.747124E+05 -1.762633E+05 -1.301951E+05  1.661573E+05 -9.926167E-13  3.308722E-13
        11  15 -4.710998E+05 -1.563261E+05 -1.254852E+05  1.621269E+05 -4.963084E-13 -4.135903E-14
        11  16 -5.238774E+05 -1.694547E+05 -1.386664E+05  1.680115E+05  0.000000E+00  3.308722E-13
        11  17 -5.281042E+05 -1.540761E+05 -1.364361E+05  1.680814E+05 -8.271806E-14 -8.271806E-14
        11  18 -5.322931E+05 -1.350200E+05 -1.334626E+05  1.680908E+05 -6.203855E-14  1.240771E-13
        11  19 -4.355551E+05 -2.163065E+05 -1.303723E+05  1.740020E+05  7.940934E-12 -2.067952E-12
        11  20 -4.197680E+05 -1.998186E+05 -1.239173E+05  1.637998E+05  2.895132E-12 -9.926167E-13
        11  21 -4.062922E+05 -1.759861E+05 -1.164557E+05  1.542496E+05  9.719372E-13 -2.129990E-12
        11  22 -4.791383E+05 -1.902689E+05 -1.338815E+05  1.702588E+05 -1.985233E-12 -1.654361E-12
        11  23 -4.747124E+05 -1.762633E+05 -1.301951E+05  1.661573E+05  1.654361E-12  9.926167E-13
        11  24 -4.710998E+05 -1.563261E+05 -1.254852E+05  1.621269E+05  1.985233E-12 -7.444626E-13
        11  25 -5.238774E+05 -1.694547E+05 -1.386664E+05  1.680115E+05  0.000000E+00 -6.617445E-13
        11  26 -5.281042E+05 -1.540761E+05 -1.364361E+05  1.680814E+05  6.617445E-13  0.000000E+00
        11  27 -5.322931E+05 -1.350200E+05 -1.334626E+05  1.680908E+05  4.963084E-13 -2.481542E-13
        12   1 -4.700523E+05 -2.827951E+05 -1.505695E+05  2.087844E+05 -4.632211E-12  5.459392E-12
        12   2 -4.584002E+05 -2.623101E+05 -1.441420E+05  1.951394E+05 -1.323489E-12  5.542110E-12
        12   3 -4.477597E+05 -2.302566E+05 -1.356033E+05  1.824185E+05 -2.812414E-12  2.192029E-12
        12   4 -4.901669E+05 -2.543180E+05 -1.488970E+05  1.967984E+05 -5.293956E-12  3.308722E-12
        12   5 -4.877984E+05 -2.345769E+05 -1.444751E+05  1.860176E+05 -6.617445E-13  6.617445E-13
        12   6 -4.850160E+05 -2.043048E+05 -1.378642E+05  1.759815E+05  1.819797E-12  1.488925E-12
        12   7 -5.137099E+05 -2.307056E+05 -1.488831E+05  1.872199E+05 -2.646978E-12  7.940934E-12
        12   8 -5.187143E+05 -2.095752E+05 -1.456579E+05  1.780794E+05  2.646978E-12  5.955700E-12
        12   9 -5.223242E+05 -1.793949E+05 -1.403438E+05  1.697744E+05 -1.985233E-12 -2.150670E-12
        12  10 -4.700523E+05 -2.827951E+05 -1.505695E+05  2.087844E+05 -6.617445E-13  3.308722E-13
        12  11 -4.584002E+05 -2.623101E+05 -1.441420E+05  1.951394E+05 -4.963084E-13  0.000000E+00
        12  12 -4.477597E+05 -2.302566E+05 -1.356033E+05  1.824185E+05 -3.722313E-13  2.688337E-13
        12  13 -4.901669E+05 -2.543180E+05 -1.488970E+05  1.967984E+05  6.617445E-13  0.000000E+00
        12  14 -4.877984E+05 -2.345769E+05 -1.444751E+05  1.860176E+05 -9.926167E-13  9.926167E-13
        12  15 -4.850160E+05 -2.043048E+05 -1.378642E+05  1.759815E+05  6.617445E-13 -8.271806E-14
        12  16 -5.137099E+05 -2.307056E+05 -1.488831E+05  1.872199E+05  0.000000E+00  0.000000E+00
        12  17 -5.187143E+05 -2.095752E+05 -1.456579E+05  1.780794E+05  1.158053E-12 -6.617445E-13
        12  18 -5.223242E+05 -1.793949E+05 -1.403438E+05  1.697744E+05 -2.067952E-13  2.067952E-14
        12  19 -4.700523E+05 -2.827951E+05 -1.505695E+05  2.087844E+05  4.632211E-12 -2.812414E-12
        12  20 -4.584002E+05 -2.623101E+05 -1.441420E+05  1.951394E+05  3.970467E-12 -2.895132E-12
        12  21 -4.477597E+05 -2.302566E+05 -1.356033E+05  1.824185E+05  2.812414E-12 -2.192029E-12
        12  22 -4.901669E+05 -2.543180E+05 -1.488970E+05  1.967984E+05  7.940934E-12 -3.308722E-12
        12  23 -4.877984E+05 -2.345769E+05 -1.444751E+05  1.860176E+05 -1.985233E-12 -6.617445E-13
        12  24 -4.850160E+05 -2.043048E+05 -1.378642E+05  1.759815E+05 -4.963084E-13 -1.488925E-12
        12  25 -5.137099E+05 -2.307056E+05 -1.488831E+05  1.872199E+05  2.646978E-12  0.000000E+00
        12  26 -5.187143E+05 -2.095752E+05 -1.456579E+05  1.780794E+05  0.000000E+00 -6.617445E-13
        12  27 -5.223242E+05 -1.793949E+05 -1.403438E+05  1.697744E+05  6.617445E-13  8.271806E-13
        13   1 -5.272064E+05 -3.446624E+05 -1.743738E+05  3.139289E+05 -2.646978E-12  3.639595E-12
        13   2 -5.093060E+05 -3.488236E+05 -1.716259E+05  3.086958E+05  3.970467E-12 -3.143286E-12
        13   3 -4.892168E+05 -3.516950E+05 -1.681824E+05  3.029540E+05  1.133237E-11 -6.203855E-13
        13   4 -5.242794E+05 -3.117542E+05 -1.672067E+05  2.771717E+05  0.000000E+00  5.293956E-12
        13   5 -5.108331E+05 -3.136616E+05 -1.648989E+05  2.750440E+05 -5.293956E-12  0.000000E+00
        13   6 -4.958980E+05 -3.132326E+05 -1.618261E+05  2.732642E+05 -1.224227E-11 -2.646978E-12
        13   7 -5.274026E+05 -2.872077E+05 -1.629221E+05  2.448333E+05 -5.293956E-12  2.646978E-12
        13   8 -5.193139E+05 -2.889826E+05 -1.616593E+05  2.464255E+05 -1.323489E-11  1.323489E-12
        13   9 -5.105485E+05 -2.874290E+05 -1.595955E+05  2.493216E+05  1.323489E-12 -5.624828E-12
        13  10 -5.272064E+05 -3.446624E+05 -1.743738E+05  3.139289E+05 -6.617445E-13  6.617445E-13
        13  11 -5.093060E+05 -3.488236E+05 -1.716259E+05  3.086958E+05  0.000000E+00 -3.308722E-13
        13  12 -4.892168E+05 -3.516950E+05 -1.681824E+05  3.029540E+05  1.158053E-12  8.271806E-13
        13  13 -5.242794E+05 -3.117542E+05 -1.672067E+05  2.771717E+05 -2.646978E-12 -1.323489E-12
        13  14 -5.108331E+05 -3.136616E+05 -1.648989E+05  2.750440E+05  6.617445E-13  1.985233E-12
        13  15 -4.958980E+05 -3.132326E+05 -1.618261E+05  2.732642E+05 -1.158053E-12  6.617445E-13
        13  16 -5.274026E+05 -2.872077E+05 -1.629221E+05  2.448333E+05  6.617445E-13  6.617445E-13
        13  17 -5.193139E+05 -2.889826E+05 -1.616593E+05  2.464255E+05  2.646978E-12  3.308722E-13
        13  18 -5.105485E+05 -2.874290E+05 -1.595955E+05  2.493216E+05  7.444626E-13 -1.654361E-13
        13  19 -5.272064E+05 -3.446624E+05 -1.743738E+05  3.139289E+05  2.646978E-12  6.948317E-12
        13  20 -5.093060E+05 -3.488236E+05 -1.716259E+05  3.086958E+05  1.323489E-12  3.143286E-12
        13  21 -4.892168E+05 -3.516950E+05 -1.681824E+05  3.029540E+05 -7.444626E-13 -2.026593E-12
        13  22 -5.242794E+05 -3.117542E+05 -1.672067E+05  2.771717E+05  0.000000E+00 -5.293956E-12
        13  23 -5.108331E+05 -3.136616E+05 -1.648989E+05  2.750440E+05  1.058791E-11  0.000000E+00
        13  24 -4.958980E+05 -3.132326E+05 -1.618261E+05  2.732642E+05 -3.639595E-12 -2.646978E-12
        13  25 -5.274026E+05 -2.872077E+05 -1.629221E+05  2.448333E+05  1.058791E-11 -2.646978E-12
        13  26 -5.193139E+05 -2.889826E+05 -1.616593E+05  2.464255E+05  2.646978E-12 -1.323489E-12
        13  27 -5.105485E+05 -2.874290E+05 -1.595955E+05  2.493216E+05  3.970467E-12  5.624828E-12
        14   1 -4.601196E+05 -3.331471E+05 -1.586534E+05  2.878094E+05  1.654361E-12  3.639595E-12
        14   2 -4.515134E+05 -3.382381E+05 -1.579503E+05  2.881291E+05  6.617445E-13  9.926167E-13
        14   3 -4.413413E+05 -3.533049E+05 -1.589292E+05  2.884076E+05 -6.162496E-12  4.549493E-12
        14   4 -4.823873E+05 -3.162113E+05 -1.597197E+05  2.692150E+05 -1.323489E-12  1.323489E-12
        14   5 -4.691700E+05 -3.225608E+05 -1.583461E+05  2.653707E+05  6.617445E-12  4.632211E-12
        14   6 -4.536220E+05 -3.400481E+05 -1.587340E+05  2.600359E+05  8.271806E-13  3.805031E-12
        14   7 -5.031624E+05 -2.932447E+05 -1.592814E+05  2.491511E+05 -7.940934E-12  2.646978E-12
        14   8 -4.853223E+05 -2.996849E+05 -1.570014E+05  2.407827E+05 -2.646978E-12 -1.323489E-12
        14   9 -4.639694E+05 -3.175277E+05 -1.562994E+05  2.289259E+05  2.977850E-12  1.654361E-12
        14  10 -4.601196E+05 -3.331471E+05 -1.586534E+05  2.878094E+05  6.617445E-13 -3.308722E-13
        14  11 -4.515134E+05 -3.382381E+05 -1.579503E+05  2.881291E+05  6.617445E-13 -8.271806E-13
        14  12 -4.413413E+05 -3.533049E+05 -1.589292E+05  2.884076E+05  8.271806E-14 -8.271806E-14
        14  13 -4.823873E+05 -3.162113E+05 -1.597197E+05  2.692150E+05  1.323489E-12  0.000000E+00
        14  14 -4.691700E+05 -3.225608E+05 -1.583461E+05  2.653707E+05  1.323489E-12 -6.617445E-13
        14  15 -4.536220E+05 -3.400481E+05 -1.587340E+05  2.600359E+05 -1.654361E-13 -3.308722E-13
        14  16 -5.031624E+05 -2.932447E+05 -1.592814E+05  2.491511E+05 -6.617445E-13  3.308722E-13
        14  17 -4.853223E+05 -2.996849E+05 -1.570014E+05  2.407827E+05 -3.308722E-13  1.654361E-13
        14  18 -4.639694E+05 -3.175277E+05 -1.562994E+05  2.289259E+05 -5.790264E-13  8.271806E-14
        14  19 -4.601196E+05 -3.331471E+05 -1.586534E+05  2.878094E+05  3.639595E-12  1.654361E-12
        14  20 -4.515134E+05 -3.382381E+05 -1.579503E+05  2.881291E+05 -6.617445E-13 -9.926167E-13
        14  21 -4.413413E+05 -3.533049E+05 -1.589292E+05  2.884076E+05  8.809474E-12 -4.549493E-12
        14  22 -4.823873E+05 -3.162113E+05 -1.597197E+05  2.692150E+05  1.323489E-12 -1.323489E-12
        14  23 -4.691700E+05 -3.225608E+05 -1.583461E+05  2.653707E+05 -1.323489E-12  6.617445E-13
        14  24 -4.536220E+05 -3.400481E+05 -1.587340E+05  2.600359E+05  7.113753E-12 -1.158053E-12
        14  25 -5.031624E+05 -2.932447E+05 -1.592814E+05  2.491511E+05 -2.646978E-12 -5.293956E-12
        14  26 -4.853223E+05 -2.996849E+05 -1.570014E+05  2.407827E+05  5.293956E-12 -1.323489E-12
        14  27 -4.639694E+05 -3.175277E+05 -1.562994E+05  2.289259E+05  2.316106E-12  9.926167E-13
        15   1 -5.110756E+05 -2.821663E+05 -1.586484E+05  2.352737E+05 -8.933551E-12 -3.308722E-13
        15   2 -4.932426E+05 -2.854388E+05 -1.557363E+05  2.271914E+05 -8.271806E-13  1.985233E-12
        15   3 -4.765064E+05 -2.917108E+05 -1.536434E+05  2.175221E+05 -5.211238E-12  2.564260E-12
        15   4 -5.273669E+05 -2.555255E+05 -1.565785E+05  2.163672E+05 -6.617445E-12  5.293956E-12
        15   5 -5.109377E+05 -2.582075E+05 -1.538290E+05  2.109643E+05 -5.293956E-12 -2.646978E-12
        15   6 -4.956398E+05 -2.627578E+05 -1.516795E+05  2.043207E+05 -7.610062E-12  0.000000E+00
        15   7 -5.465664E+05 -2.325348E+05 -1.558202E+05  1.994477E+05  5.293956E-12  2.646978E-12
        15   8 -5.320781E+05 -2.355446E+05 -1.535245E+05  1.970828E+05 -1.323489E-12  3.970467E-12
        15   9 -5.189444E+05 -2.394849E+05 -1.516859E+05  1.939849E+05 -6.617445E-13  4.963084E-12
        15  10 -5.110756E+05 -2.821663E+05 -1.586484E+05  2.352737E+05  0.000000E+00 -3.308722E-13
        15  11 -4.932426E+05 -2.854388E+05 -1.557363E+05  2.271914E+05  6.617445E-13  1.654361E-13
        15  12 -4.765064E+05 -2.917108E+05 -1.536434E+05  2.175221E+05 -8.271806E-13 -2.481542E-13
        15  13 -5.273669E+05 -2.555255E+05 -1.565785E+05  2.163672E+05 -1.323489E-12  1.323489E-12
        15  14 -5.109377E+05 -2.582075E+05 -1.538290E+05  2.109643E+05  1.323489E-12  0.000000E+00
        15  15 -4.956398E+05 -2.627578E+05 -1.516795E+05  2.043207E+05  1.985233E-12 -1.075335E-12
        15  16 -5.465664E+05 -2.325348E+05 -1.558202E+05  1.994477E+05  0.000000E+00  0.000000E+00
        15  17 -5.320781E+05 -2.355446E+05 -1.535245E+05  1.970828E+05 -9.926167E-13  3.308722E-13
        15  18 -5.189444E+05 -2.394849E+05 -1.516859E+05  1.939849E+05  8.271806E-14 -1.654361E-13
        15  19 -5.110756E+05 -2.821663E+05 -1.586484E+05  2.352737E+05 -1.654361E-12 -2.316106E-12
        15  20 -4.932426E+05 -2.854388E+05 -1.557363E+05  2.271914E+05  8.271806E-13 -1.985233E-12
        15  21 -4.765064E+05 -2.917108E+05 -1.536434E+05  2.175221E+05  7.858216E-12  8.271806E-14
        15  22 -5.273669E+05 -2.555255E+05 -1.565785E+05  2.163672E+05 -3.970467E-12 -5.293956E-12
        15  23 -5.109377E+05 -2.582075E+05 -1.538290E+05  2.109643E+05  0.000000E+00  0.000000E+00
        15  24 -4.956398E+05 -2.627578E+05 -1.516795E+05  2.043207E+05  2.316106E-12 -5.293956E-12
        15  25 -5.465664E+05 -2.325348E+05 -1.558202E+05  1.994477E+05  5.293956E-12 -2.646978E-12
        15  26 -5.320781E+05 -2.355446E+05 -1.535245E+05  1.970828E+05 -1.323489E-12  1.323489E-12
        15  27 -5.189444E+05 -2.394849E+05 -1.516859E+05  1.939849E+05  3.308722E-12 -2.316106E-12
        16   1 -5.320455E+05 -2.702259E+05 -1.604543E+05  2.318024E+05  8.271806E-12  3.308722E-13
        16   2 -5.270875E+05 -2.729343E+05 -1.600044E+05  2.339081E+05 -3.308722E-13  6.286573E-12
        16   3 -5.189743E+05 -2.766117E+05 -1.591172E+05  2.360838E+05 -3.598236E-12  2.812414E-12
        16   4 -5.414100E+05 -2.457104E+05 -1.574241E+05  2.128103E+05  7.940934E-12 -1.323489E-12
        16   5 -5.384394E+05 -2.481518E+05 -1.573182E+05  2.143652E+05 -6.617445E-12  3.970467E-12
        16   6 -5.325668E+05 -2.510211E+05 -1.567176E+05  2.158483E+05 -1.819797E-12  2.150670E-12
        16   7 -5.547966E+05 -2.241520E+05 -1.557897E+05  1.966753E+05  5.293956E-12  7.940934E-12
        16   8 -5.545150E+05 -2.270373E+05 -1.563104E+05  1.980466E+05 -3.970467E-12 -3.970467E-12
        16   9 -5.517744E+05 -2.299438E+05 -1.563436E+05  1.992835E+05 -3.970467E-12  2.316106E-12
        16  10 -5.320455E+05 -2.702259E+05 -1.604543E+05  2.318024E+05 -6.617445E-13 -6.617445E-13
        16  11 -5.270875E+05 -2.729343E+05 -1.600044E+05  2.339081E+05  9.926167E-13 -6.617445E-13
        16  12 -5.189743E+05 -2.766117E+05 -1.591172E+05  2.360838E+05 -1.654361E-13 -2.481542E-13
        16  13 -5.414100E+05 -2.457104E+05 -1.574241E+05  2.128103E+05  1.323489E-12 -1.323489E-12
        16  14 -5.384394E+05 -2.481518E+05 -1.573182E+05  2.143652E+05  3.308722E-12  6.617445E-13
        16  15 -5.325668E+05 -2.510211E+05 -1.567176E+05  2.158483E+05  0.000000E+00  0.000000E+00
        16  16 -5.547966E+05 -2.241520E+05 -1.557897E+05  1.966753E+05  6.617445E-13  6.617445E-13
        16  17 -5.545150E+05 -2.270373E+05 -1.563104E+05  1.980466E+05 -3.308722E-13  1.323489E-12
        16  18 -5.517744E+05 -2.299438E+05 -1.563436E+05  1.992835E+05  3.308722E-13 -8.685396E-13
        16  19 -5.320455E+05 -2.702259E+05 -1.604543E+05  2.318024E+05 -8.271806E-12 -3.308722E-13
        16  20 -5.270875E+05 -2.729343E+05 -1.600044E+05  2.339081E+05  5.624828E-12 -6.286573E-12
        16  21 -5.189743E+05 -2.766117E+05 -1.591172E+05  2.360838E+05  3.598236E-12 -5.459392E-12
        16  22 -5.414100E+05 -2.457104E+05 -1.574241E+05  2.128103E+05 -7.940934E-12  6.617445E-12
        16  23 -5.384394E+05 -2.481518E+05 -1.573182E+05  2.143652E+05  6.617445E-12  1.323489E-12
        16  24 -5.325668E+05 -2.510211E+05 -1.567176E+05  2.158483E+05 -3.474159E-12  4.963084E-13
        16  25 -5.547966E+05 -2.241520E+05 -1.557897E+05  1.966753E+05  5.293956E-12 -5.293956E-12
        16  26 -5.545150E+05 -2.270373E+05 -1.563104E+05  1.980466E+05  6.617445E-12  1.323489E-12
        16  27 -5.517744E+05 -2.299438E+05 -1.563436E+05  1.992835E+05 -3.970467E-12  3.308722E-13
        17   1 -3.121537E+05 -2.305326E+05 -1.085373E+05  8.175646E+04 -1.323489E-12 -1.323489E-12
        17   2 -3.202082E+05 -2.409094E+05 -1.122235E+05  8.925289E+04 -3.308722E-12  2.646978E-12
        17   3 -3.277835E+05 -2.513317E+05 -1.158230E+05  9.733557E+04  4.301339E-12 -9.264423E-12
        17   4 -3.020439E+05 -2.316793E+05 -1.067446E+05  6.637873E+04  0.000000E+00 -2.117582E-11
        17   5 -3.081199E+05 -2.427320E+05 -1.101704E+05  7.208364E+04 -5.293956E-12 -5.293956E-12
        17   6 -3.137183E+05 -2.534640E+05 -1.134365E+05  7.848041E+04 -1.522012E-11  3.970467E-12
        17   7 -2.928675E+05 -2.330540E+05 -1.051843E+05  5.088524E+04 -1.588187E-11 -2.117582E-11
        17   8 -2.968250E+05 -2.447541E+05 -1.083158E+05  5.494733E+04  1.323489E-11 -1.588187E-11
        17   9 -3.003299E+05 -2.558072E+05 -1.112274E+05  5.977186E+04  1.124966E-11  1.323489E-11
        17  10 -3.121537E+05 -2.305326E+05 -1.085373E+05  8.175646E+04  0.000000E+00  0.000000E+00
        17  11 -3.202082E+05 -2.409094E+05 -1.122235E+05  8.925289E+04  2.316106E-12  0.000000E+00
        17  12 -3.277835E+05 -2.513317E+05 -1.158230E+05  9.733557E+04 -4.135903E-13  1.654361E-13
        17  13 -3.020439E+05 -2.316793E+05 -1.067446E+05  6.637873E+04  0.000000E+00  0.000000E+00
        17  14 -3.081199E+05 -2.427320E+05 -1.101704E+05  7.208364E+04  2.646978E-12 -2.646978E-12
        17  15 -3.137183E+05 -2.534640E+05 -1.134365E+05  7.848041E+04 -9.926167E-13  6.617445E-13
        17  16 -2.928675E+05 -2.330540E+05 -1.051843E+05  5.088524E+04 -6.617445E-13 -1.323489E-12
        17  17 -2.968250E+05 -2.447541E+05 -1.083158E+05  5.494733E+04  0.000000E+00 -2.646978E-12
        17  18 -3.003299E+05 -2.558072E+05 -1.112274E+05  5.977186E+04  9.926167E-13  2.646978E-12
        17  19 -3.121537E+05 -2.305326E+05 -1.085373E+05  8.175646E+04  1.323489E-12  1.191140E-11
        17  20 -3.202082E+05 -2.409094E+05 -1.122235E+05  8.925289E+04 -7.279189E-12  7.940934E-12
        17  21 -3.277835E+05 -2.513317E+05 -1.158230E+05  9.733557E+04 -4.301339E-12  1.985233E-11
        17  22 -3.020439E+05 -2.316793E+05 -1.067446E+05  6.637873E+04 -1.058791E-11  0.000000E+00
        17  23 -3.081199E+05 -2.427320E+05 -1.101704E+05  7.208364E+04  5.293956E-12  5.293956E-12
        17  24 -3.137183E+05 -2.534640E+05 -1.134365E+05  7.848041E+04  4.632211E-12 -1.455838E-11
        17  25 -2.928675E+05 -2.330540E+05 -1.051843E+05  5.088524E+04 -5.293956E-12  0.000000E+00
        17  26 -2.968250E+05 -2.447541E+05 -1.083158E+05  5.494733E+04 -2.646978E-12 -5.293956E-12
        17  27 -3.003299E+05 -2.558072E+05 -1.112274E+05  5.977186E+04 -5.955700E-12  1.852885E-11
        18   1 -3.328565E+05 -2.573947E+05 -1.180502E+05  1.019232E+05  7.279189E-12 -6.617445E-12
        18   2 -3.412800E+05 -2.659733E+05 -1.214507E+05  1.091788E+05  3.639595E-12 -5.293956E-12
        18   3 -3.488199E+05 -2.729130E+05 -1.243466E+05  1.172046E+05  1.290402E-11 -3.805031E-12
        18   4 -3.170266E+05 -2.596266E+05 -1.153306E+05  8.189210E+04  1.058791E-11 -3.176374E-11
        18   5 -3.230879E+05 -2.690756E+05 -1.184327E+05  8.771326E+04 -1.852885E-11 -2.646978E-12
        18   6 -3.283033E+05 -2.766924E+05 -1.209991E+05  9.434407E+04  1.852885E-11 -2.514629E-11
        18   7 -3.026017E+05 -2.621594E+05 -1.129522E+05  6.185335E+04  0.000000E+00  0.000000E+00
        18   8 -3.061439E+05 -2.724682E+05 -1.157224E+05  6.632282E+04  2.646978E-12 -2.117582E-11
        18   9 -3.088968E+05 -2.807682E+05 -1.179330E+05  7.162689E+04  1.191140E-11  1.720536E-11
        18  10 -3.328565E+05 -2.573947E+05 -1.180502E+05  1.019232E+05  0.000000E+00  1.323489E-12
        18  11 -3.412800E+05 -2.659733E+05 -1.214507E+05  1.091788E+05  1.323489E-12  0.000000E+00
        18  12 -3.488199E+05 -2.729130E+05 -1.243466E+05  1.172046E+05  1.158053E-12 -2.812414E-12
        18  13 -3.170266E+05 -2.596266E+05 -1.153306E+05  8.189210E+04  1.323489E-12  0.000000E+00
        18  14 -3.230879E+05 -2.690756E+05 -1.184327E+05  8.771326E+04 -1.323489E-12  1.058791E-11
        18  15 -3.283033E+05 -2.766924E+05 -1.209991E+05  9.434407E+04 -2.316106E-12  1.323489E-12
        18  16 -3.026017E+05 -2.621594E+05 -1.129522E+05  6.185335E+04  0.000000E+00  0.000000E+00
        18  17 -3.061439E+05 -2.724682E+05 -1.157224E+05  6.632282E+04  1.985233E-12  1.985233E-12
        18  18 -3.088968E+05 -2.807682E+05 -1.179330E+05  7.162689E+04 -8.271806E-13 -6.617445E-13
        18  19 -3.328565E+05 -2.573947E+05 -1.180502E+05  1.019232E+05 -2.316106E-11  1.720536E-11
        18  20 -3.412800E+05 -2.659733E+05 -1.214507E+05  1.091788E+05 -3.639595E-12  1.588187E-11
        18  21 -3.488199E+05 -2.729130E+05 -1.243466E+05  1.172046E+05  2.977850E-12  2.498085E-11
        18  22 -3.170266E+05 -2.596266E+05 -1.153306E+05  8.189210E+04 -5.293956E-12  3.176374E-11
        18  23 -3.230879E+05 -2.690756E+05 -1.184327E+05  8.771326E+04 -2.646978E-12  1.323489E-11
        18  24 -3.283033E+05 -2.766924E+05 -1.209991E+05  9.434407E+04  2.646978E-12  1.455838E-11
        18  25 -3.026017E+05 -2.621594E+05 -1.129522E+05  6.185335E+04  0.000000E+00  0.000000E+00
        18  26 -3.061439E+05 -2.724682E+05 -1.157224E+05  6.632282E+04 -7.940934E-12  1.058791E-11
        18  27 -3.088968E+05 -2.807682E+05 -1.179330E+05  7.162689E+04 -6.617445E-12 -6.617445E-12
        19   1 -2.946303E+05 -2.633667E+05 -1.115994E+05  4.941409E+04  1.555100E-11 -6.617445E-12
        19   2 -2.970003E+05 -2.738016E+05 -1.141604E+05  5.317942E+04  3.143286E-12 -2.646978E-11
        19   3 -2.991858E+05 -2.835764E+05 -1.165525E+05  5.703956E+04 -7.444626E-13 -6.617445E-13
        19   4 -2.812056E+05 -2.650651E+05 -1.092542E+05  2.787471E+04  0.000000E+00  0.000000E+00
        19   5 -2.825698E+05 -2.766594E+05 -1.118458E+05  2.991385E+04  0.000000E+00 -1.058791E-11
        19   6 -2.836698E+05 -2.872971E+05 -1.141934E+05  3.215368E+04 -1.985233E-12 -1.588187E-11
        19   7 -2.688488E+05 -2.669491E+05 -1.071596E+05  6.237947E+03  7.940934E-12 -2.117582E-11
        19   8 -2.689475E+05 -2.796716E+05 -1.097238E+05  6.641155E+03  0.000000E+00 -1.058791E-11
        19   9 -2.687406E+05 -2.911661E+05 -1.119813E+05  7.332112E+03 -1.323489E-12 -1.985233E-11
        19  10 -2.946303E+05 -2.633667E+05 -1.115994E+05  4.941409E+04  3.308722E-13  0.000000E+00
        19  11 -2.970003E+05 -2.738016E+05 -1.141604E+05  5.317942E+04  6.617445E-13  6.617445E-13
        19  12 -2.991858E+05 -2.835764E+05 -1.165525E+05  5.703956E+04  4.135903E-13  2.316106E-12
        19  13 -2.812056E+05 -2.650651E+05 -1.092542E+05  2.787471E+04  0.000000E+00  0.000000E+00
        19  14 -2.825698E+05 -2.766594E+05 -1.118458E+05  2.991385E+04 -1.323489E-12 -5.293956E-12
        19  15 -2.836698E+05 -2.872971E+05 -1.141934E+05  3.215368E+04  8.271806E-13 -3.308722E-12
        19  16 -2.688488E+05 -2.669491E+05 -1.071596E+05  6.237947E+03  0.000000E+00 -1.323489E-12
        19  17 -2.689475E+05 -2.796716E+05 -1.097238E+05  6.641155E+03  1.323489E-12 -1.985233E-12
        19  18 -2.687406E+05 -2.911661E+05 -1.119813E+05  7.332112E+03  3.308722E-13  2.150670E-12
        19  19 -2.946303E+05 -2.633667E+05 -1.115994E+05  4.941409E+04 -4.963084E-12  1.720536E-11
        19  20 -2.970003E+05 -2.738016E+05 -1.141604E+05  5.317942E+04 -1.373120E-11 -5.293956E-12
        19  21 -2.991858E+05 -2.835764E+05 -1.165525E+05  5.703956E+04  7.444626E-13  6.617445E-13
        19  22 -2.812056E+05 -2.650651E+05 -1.092542E+05  2.787471E+04 -1.058791E-11  1.058791E-11
        19  23 -2.825698E+05 -2.766594E+05 -1.118458E+05  2.991385E+04  0.000000E+00 -1.058791E-11
        19  24 -2.836698E+05 -2.872971E+05 -1.141934E+05  3.215368E+04 -5.955700E-12  1.588187E-11
        19  25 -2.688488E+05 -2.669491E+05 -1.071596E+05  6.237947E+03 -2.646978E-12  0.000000E+00
        19  26 -2.689475E+05 -2.796716E+05 -1.097238E+05  6.641155E+03 -5.293956E-12  1.058791E-11
        19  27 -2.687406E+05 -2.911661E+05 -1.119813E+05  7.332112E+03 -1.323489E-12  1.985233E-11
        20   1 -2.880184E+05 -2.334354E+05 -1.042908E+05  4.144704E+04  4.301339E-12 -1.323489E-12
        20   2 -2.906912E+05 -2.449477E+05 -1.071278E+05  4.435330E+04  2.150670E-12  1.588187E-11
        20   3 -2.932910E+05 -2.569388E+05 -1.100460E+05  4.788285E+04  2.481542E-12 -7.279189E-12
        20   4 -2.801475E+05 -2.341975E+05 -1.028690E+05  2.346372E+04  1.191140E-11 -1.588187E-11
        20   5 -2.806992E+05 -2.462120E+05 -1.053822E+05  2.501798E+04 -1.323489E-12  0.000000E+00
        20   6 -2.811888E+05 -2.583276E+05 -1.079033E+05  2.719969E+04  2.150670E-12  1.786710E-11
        20   7 -2.716343E+05 -2.347946E+05 -1.012858E+05  5.376156E+03  5.293956E-12 -2.117582E-11
        20   8 -2.701122E+05 -2.473306E+05 -1.034886E+05  5.675266E+03  6.617445E-12  3.176374E-11
        20   9 -2.685311E+05 -2.596193E+05 -1.056301E+05  6.591176E+03  7.279189E-12 -2.646978E-12
        20  10 -2.880184E+05 -2.334354E+05 -1.042908E+05  4.144704E+04 -6.617445E-13  2.646978E-12
        20  11 -2.906912E+05 -2.449477E+05 -1.071278E+05  4.435330E+04  0.000000E+00 -3.970467E-12
        20  12 -2.932910E+05 -2.569388E+05 -1.100460E+05  4.788285E+04  4.963084E-13 -1.158053E-12
        20  13 -2.801475E+05 -2.341975E+05 -1.028690E+05  2.346372E+04  1.323489E-12  5.293956E-12
        20  14 -2.806992E+05 -2.462120E+05 -1.053822E+05  2.501798E+04 -6.617445E-13  5.293956E-12
        20  15 -2.811888E+05 -2.583276E+05 -1.079033E+05  2.719969E+04 -1.323489E-12 -1.323489E-12
        20  16 -2.716343E+05 -2.347946E+05 -1.012858E+05  5.376156E+03  0.000000E+00  1.323489E-12
        20  17 -2.701122E+05 -2.473306E+05 -1.034886E+05  5.675266E+03  3.308722E-13 -1.323489E-12
        20  18 -2.685311E+05 -2.596193E+05 -1.056301E+05  6.591176E+03 -5.790264E-13 -9.926167E-13
        20  19 -2.880184E+05 -2.334354E+05 -1.042908E+05  4.144704E+04  9.926167E-13  1.191140E-11
        20  20 -2.906912E+05 -2.449477E+05 -1.071278E+05  4.435330E+04 -1.273858E-11 -5.293956E-12
        20  21 -2.932910E+05 -2.569388E+05 -1.100460E+05  4.788285E+04 -2.481542E-12  7.279189E-12
        20  22 -2.801475E+05 -2.341975E+05 -1.028690E+05  2.346372E+04 -6.617445E-12  5.293956E-12
        20  23 -2.806992E+05 -2.462120E+05 -1.053822E+05  2.501798E+04  1.323489E-12  0.000000E+00
        20  24 -2.811888E+05 -2.583276E+05 -1.079033E+05  2.719969E+04  3.143286E-12  2.448455E-11
        20  25 -2.716343E+05 -2.347946E+05 -1.012858E+05  5.376156E+03 -1.058791E-11  0.000000E+00
        20  26 -2.701122E+05 -2.473306E+05 -1.034886E+05  5.675266E+03  1.323489E-12  0.000000E+00
        20  27 -2.685311E+05 -2.596193E+05 -1.056301E+05  6.591176E+03 -7.279189E-12  1.323489E-11
        21   1 -4.708286E+05 -2.682783E+05 -1.478214E+05  1.899712E+05  8.602678E-12 -3.308722E-12
        21   2 -4.891948E+05 -2.584423E+05 -1.495274E+05  1.933249E+05 -1.488925E-11 -1.654361E-12
        21   3 -5.099152E+05 -2.486569E+05 -1.517144E+05  1.952524E+05 -9.264423E-12  3.474159E-12
        21   4 -4.655072E+05 -2.602367E+05 -1.451488E+05  1.827124E+05  1.058791E-11 -2.646978E-12
        21   5 -4.847823E+05 -2.497434E+05 -1.469051E+05  1.854158E+05  2.646978E-12  6.617445E-12
        21   6 -5.054499E+05 -2.388380E+05 -1.488576E+05  1.871425E+05  0.000000E+00  1.654361E-12
        21   7 -4.623719E+05 -2.539567E+05 -1.432657E+05  1.767004E+05 -5.293956E-12  1.058791E-11
        21   8 -4.818534E+05 -2.425349E+05 -1.448777E+05  1.784036E+05  1.323489E-11 -7.940934E-12
        21   9 -5.017227E+05 -2.302049E+05 -1.463855E+05  1.797302E+05  9.926167E-12 -9.264423E-12
        21  10 -4.708286E+05 -2.682783E+05 -1.478214E+05  1.899712E+05  0.000000E+00  0.000000E+00
        21  11 -4.891948E+05 -2.584423E+05 -1.495274E+05  1.933249E+05  0.000000E+00 -1.323489E-12
        21  12 -5.099152E+05 -2.486569E+05 -1.517144E+05  1.952524E+05 -8.271806E-14 -7.444626E-13
        21  13 -4.655072E+05 -2.602367E+05 -1.451488E+05  1.827124E+05  1.323489E-12 -2.646978E-12
        21  14 -4.847823E+05 -2.497434E+05 -1.469051E+05  1.854158E+05 -6.617445E-13  2.646978E-12
        21  15 -5.054499E+05 -2.388380E+05 -1.488576E+05  1.871425E+05 -9.926167E-13  1.323489E-12
        21  16 -4.623719E+05 -2.539567E+05 -1.432657E+05  1.767004E+05 -6.617445E-13 -6.617445E-13
        21  17 -4.818534E+05 -2.425349E+05 -1.448777E+05  1.784036E+05 -1.323489E-12 -2.316106E-12
        21  18 -5.017227E+05 -2.302049E+05 -1.463855E+05  1.797302E+05  5.790264E-13 -7.444626E-13
        21  19 -4.708286E+05 -2.682783E+05 -1.478214E+05  1.899712E+05  1.985233E-12 -1.985233E-12
        21  20 -4.891948E+05 -2.584423E+05 -1.495274E+05  1.933249E+05  4.301339E-12  1.654361E-12
        21  21 -5.099152E+05 -2.486569E+05 -1.517144E+05  1.952524E+05  3.970467E-12 -3.474159E-12
        21  22 -4.655072E+05 -2.602367E+05 -1.451488E+05  1.827124E+05  5.293956E-12  2.646978E-12
        21  23 -4.847823E+05 -2.497434E+05 -1.469051E+05  1.854158E+05 -7.940934E-12  3.970467E-12
        21  24 -5.054499E+05 -2.388380E+05 -1.488576E+05  1.871425E+05 -5.293956E-12  3.639595E-12
        21  25 -4.623719E+05 -2.539567E+05 -1.432657E+05  1.767004E+05  0.000000E+00 -1.058791E-11
        21  26 -4.818534E+05 -2.425349E+05 -1.448777E+05  1.784036E+05 -1.323489E-11  2.646978E-12
        21  27 -5.017227E+05 -2.302049E+05 -1.463855E+05  1.797302E+05 -4.632211E-12  3.970467E-12
        22   1 -5.214640E+05 -2.414758E+05 -1.525880E+05  1.951250E+05 -1.654361E-12  0.000000E+00
        22   2 -5.376527E+05 -2.294842E+05 -1.534274E+05  1.935730E+05  1.323489E-12 -3.308722E-13
        22   3 -5.563699E+05 -2.175491E+05 -1.547838E+05  1.904892E+05  3.887749E-12  7.610062E-12
        22   4 -5.171433E+05 -2.313485E+05 -1.496983E+05  1.871580E+05  0.000000E+00  0.000000E+00
        22   5 -5.354076E+05 -2.192341E+05 -1.509283E+05  1.861997E+05  3.970467E-12  6.617445E-12
        22   6 -5.556703E+05 -2.068128E+05 -1.524966E+05  1.838337E+05  2.977850E-12  1.819797E-12
        22   7 -5.135763E+05 -2.220682E+05 -1.471289E+05  1.797587E+05  2.646978E-12 -2.646978E-12
        22   8 -5.336013E+05 -2.097331E+05 -1.486669E+05  1.794143E+05  2.646978E-12  2.646978E-12
        22   9 -5.550642E+05 -1.966891E+05 -1.503507E+05  1.778021E+05  5.955700E-12  5.624828E-12
        22  10 -5.214640E+05 -2.414758E+05 -1.525880E+05  1.951250E+05  0.000000E+00  1.323489E-12
        22  11 -5.376527E+05 -2.294842E+05 -1.534274E+05  1.935730E+05  1.654361E-12  6.617445E-13
        22  12 -5.563699E+05 -2.175491E+05 -1.547838E+05  1.904892E+05 -1.654361E-13 -8.271806E-14
        22  13 -5.171433E+05 -2.313485E+05 -1.496983E+05  1.871580E+05  0.000000E+00  0.000000E+00
        22  14 -5.354076E+05 -2.192341E+05 -1.509283E+05  1.861997E+05 -1.323489E-12  6.617445E-13
        22  15 -5.556703E+05 -2.068128E+05 -1.524966E+05  1.838337E+05 -6.617445E-13 -2.150670E-12
        22  16 -5.135763E+05 -2.220682E+05 -1.471289E+05  1.797587E+05  0.000000E+00 -6.617445E-13
        22  17 -5.336013E+05 -2.097331E+05 -1.486669E+05  1.794143E+05  0.000000E+00  0.000000E+00
        22  18 -5.550642E+05 -1.966891E+05 -1.503507E+05  1.778021E+05  1.654361E-13 -3.308722E-13
        22  19 -5.214640E+05 -2.414758E+05 -1.525880E+05  1.951250E+05  6.948317E-12  0.000000E+00
        22  20 -5.376527E+05 -2.294842E+05 -1.534274E+05  1.935730E+05 -1.323489E-12  3.308722E-13
        22  21 -5.563699E+05 -2.175491E+05 -1.547838E+05  1.904892E+05 -9.181705E-12 -7.610062E-12
        22  22 -5.171433E+05 -2.313485E+05 -1.496983E+05  1.871580E+05  0.000000E+00  0.000000E+00
        22  23 -5.354076E+05 -2.192341E+05 -1.509283E+05  1.861997E+05  1.323489E-12 -3.970467E-12
        22  24 -5.556703E+05 -2.068128E+05 -1.524966E+05  1.838337E+05 -8.271806E-12  3.474159E-12
        22  25 -5.135763E+05 -2.220682E+05 -1.471289E+05  1.797587E+05 -1.323489E-11  2.646978E-12
        22  26 -5.336013E+05 -2.097331E+05 -1.486669E+05  1.794143E+05 -2.646978E-12  7.940934E-12
        22  27 -5.550642E+05 -1.966891E+05 -1.503507E+05  1.778021E+05  1.985233E-12 -2.977850E-12
        23   1 -5.111016E+05 -2.174410E+05 -1.457085E+05  1.768309E+05 -6.617445E-13  6.286573E-12
        23   2 -5.313153E+05 -2.047176E+05 -1.472066E+05  1.768081E+05  1.025704E-11 -4.963084E-12
        23   3 -5.526751E+05 -1.930273E+05 -1.491405E+05  1.757611E+05 -7.031035E-13  2.109311E-12
        23   4 -5.052103E+05 -2.108806E+05 -1.432182E+05  1.735233E+05  9.264423E-12  2.646978E-12
        23   5 -5.247673E+05 -1.989767E+05 -1.447488E+05  1.738058E+05  1.323489E-12  1.323489E-12
        23   6 -5.450588E+05 -1.876487E+05 -1.465415E+05  1.732415E+05 -1.819797E-12 -3.308722E-13
        23   7 -4.983838E+05 -2.038886E+05 -1.404545E+05  1.698848E+05  2.646978E-12 -1.323489E-11
        23   8 -5.169226E+05 -1.929530E+05 -1.419751E+05  1.706062E+05  6.617445E-12  0.000000E+00
        23   9 -5.357780E+05 -1.820236E+05 -1.435603E+05  1.706654E+05  3.308722E-13  1.985233E-12
        23  10 -5.111016E+05 -2.174410E+05 -1.457085E+05  1.768309E+05  6.617445E-13  3.308722E-13
        23  11 -5.313153E+05 -2.047176E+05 -1.472066E+05  1.768081E+05 -3.308722E-13 -1.323489E-12
        23  12 -5.526751E+05 -1.930273E+05 -1.491405E+05  1.757611E+05  4.963084E-13  5.376674E-13
        23  13 -5.052103E+05 -2.108806E+05 -1.432182E+05  1.735233E+05 -1.323489E-12  0.000000E+00
        23  14 -5.247673E+05 -1.989767E+05 -1.447488E+05  1.738058E+05  1.323489E-12 -1.323489E-12
        23  15 -5.450588E+05 -1.876487E+05 -1.465415E+05  1.732415E+05  8.271806E-13 -1.488925E-12
        23  16 -4.983838E+05 -2.038886E+05 -1.404545E+05  1.698848E+05  6.617445E-13  3.308722E-13
        23  17 -5.169226E+05 -1.929530E+05 -1.419751E+05  1.706062E+05 -3.308722E-13  1.323489E-12
        23  18 -5.357780E+05 -1.820236E+05 -1.435603E+05  1.706654E+05  5.790264E-13 -1.240771E-13
        23  19 -5.111016E+05 -2.174410E+05 -1.457085E+05  1.768309E+05  1.124966E-11 -6.286573E-12
        23  20 -5.313153E+05 -2.047176E+05 -1.472066E+05  1.768081E+05 -4.963084E-12  4.963084E-12
        23  21 -5.526751E+05 -1.930273E+05 -1.491405E+05  1.757611E+05 -7.237830E-12 -2.109311E-12
        23  22 -5.052103E+05 -2.108806E+05 -1.432182E+05  1.735233E+05 -9.264423E-12  2.646978E-12
        23  23 -5.247673E+05 -1.989767E+05 -1.447488E+05  1.738058E+05  1.323489E-12 -1.323489E-12
        23  24 -5.450588E+05 -1.876487E+05 -1.465415E+05  1.732415E+05  4.466775E-12  3.308722E-13
        23  25 -4.983838E+05 -2.038886E+05 -1.404545E+05  1.698848E+05  5.293956E-12  2.646978E-12
        23  26 -5.169226E+05 -1.929530E+05 -1.419751E+05  1.706062E+05 -3.970467E-12 -2.646978E-12
        23  27 -5.357780E+05 -1.820236E+05 -1.435603E+05  1.706654E+05 -2.977850E-12  6.617445E-13
        24   1 -4.611780E+05 -2.499772E+05 -1.422310E+05  1.736573E+05 -3.639595E-12 -5.293956E-12
        24   2 -4.793517E+05 -2.374528E+05 -1.433609E+05  1.759457E+05 -3.639595E-12 -3.970467E-12
        24   3 -4.989802E+05 -2.254808E+05 -1.448922E+05  1.768589E+05 -5.335315E-12  1.207684E-11
        24   4 -4.575748E+05 -2.424068E+05 -1.399963E+05  1.698519E+05  7.940934E-12 -5.293956E-12
        24   5 -4.753057E+05 -2.302160E+05 -1.411043E+05  1.719153E+05  3.970467E-12 -2.646978E-12
        24   6 -4.937811E+05 -2.179622E+05 -1.423487E+05  1.729777E+05  3.308722E-13 -6.617445E-13
        24   7 -4.551897E+05 -2.355869E+05 -1.381553E+05  1.666929E+05 -5.293956E-12  5.293956E-12
        24   8 -4.717569E+05 -2.237809E+05 -1.391076E+05  1.682915E+05 -2.646978E-12 -5.293956E-12
        24   9 -4.883681E+05 -2.111333E+05 -1.399003E+05  1.694152E+05  5.955700E-12  0.000000E+00
        24  10 -4.611780E+05 -2.499772E+05 -1.422310E+05  1.736573E+05  0.000000E+00  1.323489E-12
        24  11 -4.793517E+05 -2.374528E+05 -1.433609E+05  1.759457E+05  3.308722E-13  1.654361E-12
        24  12 -4.989802E+05 -2.254808E+05 -1.448922E+05  1.768589E+05 -1.654361E-12  5.790264E-13
        24  13 -4.575748E+05 -2.424068E+05 -1.399963E+05  1.698519E+05 -2.646978E-12  0.000000E+00
        24  14 -4.753057E+05 -2.302160E+05 -1.411043E+05  1.719153E+05 -1.323489E-12 -1.323489E-12
        24  15 -4.937811E+05 -2.179622E+05 -1.423487E+05  1.729777E+05 -1.654361E-13  1.488925E-12
        24  16 -4.551897E+05 -2.355869E+05 -1.381553E+05  1.666929E+05 -1.323489E-12 -6.617445E-13
        24  17 -4.717569E+05 -2.237809E+05 -1.391076E+05  1.682915E+05  9.926167E-13  3.308722E-13
        24  18 -4.883681E+05 -2.111333E+05 -1.399003E+05  1.694152E+05 -4.135903E-13  2.481542E-13
        24  19 -4.611780E+05 -2.499772E+05 -1.422310E+05  1.736573E+05  3.639595E-12  0.000000E+00
        24  20 -4.793517E+05 -2.374528E+05 -1.433609E+05  1.759457E+05 -6.948317E-12  3.970467E-12
        24  21 -4.989802E+05 -2.254808E+05 -1.448922E+05  1.768589E+05  1.062927E-11 -6.782881E-12
        24  22 -4.575748E+05 -2.424068E+05 -1.399963E+05  1.698519E+05 -2.646978E-12  0.000000E+00
        24  23 -4.753057E+05 -2.302160E+05 -1.411043E+05  1.719153E+05 -9.264423E-12 -2.646978E-12
        24  24 -4.937811E+05 -2.179622E+05 -1.423487E+05  1.729777E+05 -3.308722E-13  6.617445E-13
        24  25 -4.551897E+05 -2.355869E+05 -1.381553E+05  1.666929E+05  0.000000E+00 -5.293956E-12
        24  26 -4.717569E+05 -2.237809E+05 -1.391076E+05  1.682915E+05 -2.646978E-12 -5.293956E-12
        24  27 -4.883681E+05 -2.111333E+05 -1.399003E+05  1.694152E+05 -5.955700E-12  5.293956E-12
        25   1 -5.237346E+05 -1.384838E+05 -1.324437E+05  1.706311E+05 -5.169879E-13  3.618915E-13
        25   2 -4.559293E+05 -1.518399E+05 -1.215538E+05  1.590440E+05 -1.033976E-12  2.895132E-13
        25   3 -3.916969E+05 -1.730239E+05 -1.129442E+05  1.504007E+05 -4.259980E-12  1.323489E-12
        25   4 -4.617684E+05 -1.228940E+05 -1.169325E+05  1.567152E+05 -2.895132E-13  1.861156E-13
        25   5 -4.000254E+05 -1.369403E+05 -1.073932E+05  1.431325E+05  3.308722E-13  3.308722E-13
        25   6 -3.396734E+05 -1.575154E+05 -9.943774E+04  1.312350E+05 -1.654361E-12  1.488925E-12
        25   7 -4.028407E+05 -1.081821E+05 -1.022046E+05  1.410276E+05 -1.240771E-13  1.240771E-13
        25   8 -3.509763E+05 -1.241349E+05 -9.502225E+04  1.257293E+05 -8.271806E-13  1.654361E-13
        25   9 -2.977458E+05 -1.449427E+05 -8.853770E+04  1.104675E+05 -1.323489E-12  1.323489E-12
        25  10 -5.237346E+05 -1.384838E+05 -1.324437E+05  1.706311E+05  5.169879E-15  3.618915E-14
        25  11 -4.559293E+05 -1.518399E+05 -1.215538E+05  1.590440E+05 -3.101927E-14 -1.033976E-13
        25  12 -3.916969E+05 -1.730239E+05 -1.129442E+05  1.504007E+05 -5.169879E-14 -5.169879E-14
        25  13 -4.617684E+05 -1.228940E+05 -1.169325E+05  1.567152E+05  2.067952E-14  4.135903E-14
        25  14 -4.000254E+05 -1.369403E+05 -1.073932E+05  1.431325E+05 -1.654361E-13  1.654361E-13
        25  15 -3.396734E+05 -1.575154E+05 -9.943774E+04  1.312350E+05  3.101927E-13  0.000000E+00
        25  16 -4.028407E+05 -1.081821E+05 -1.022046E+05  1.410276E+05  4.135903E-14  0.000000E+00
        25  17 -3.509763E+05 -1.241349E+05 -9.502225E+04  1.257293E+05  8.271806E-14 -8.271806E-14
        25  18 -2.977458E+05 -1.449427E+05 -8.853770E+04  1.104675E+05  4.135903E-14 -4.135903E-14
        25  19 -5.237346E+05 -1.384838E+05 -1.324437E+05  1.706311E+05  4.342698E-13 -3.618915E-13
        25  20 -4.559293E+05 -1.518399E+05 -1.215538E+05  1.590440E+05  1.033976E-12 -2.895132E-13
        25  21 -3.916969E+05 -1.730239E+05 -1.129442E+05  1.504007E+05  2.936491E-12 -1.985233E-12
        25  22 -4.617684E+05 -1.228940E+05 -1.169325E+05  1.567152E+05  3.722313E-13 -1.861156E-13
        25  23 -4.000254E+05 -1.369403E+05 -1.073932E+05  1.431325E+05  3.308722E-13 -3.308722E-13
        25  24 -3.396734E+05 -1.575154E+05 -9.943774E+04  1.312350E+05  1.654361E-12 -1.488925E-12
        25  25 -4.028407E+05 -1.081821E+05 -1.022046E+05  1.410276E+05  2.067952E-13 -8.271806E-14
        25  26 -3.509763E+05 -1.241349E+05 -9.502225E+04  1.257293E+05  8.271806E-13 -6.617445E-13
        25  27 -2.977458E+05 -1.449427E+05 -8.853770E+04  1.104675E+05  1.985233E-12 -1.654361E-12
        26   1 -3.382063E+05 -1.868939E+05 -1.050200E+05  1.439464E+05 -2.357465E-12  2.440183E-12
        26   2 -2.484054E+05 -2.195268E+05 -9.358645E+04  1.117949E+05 -2.212708E-12  1.902515E-12
        26   3 -1.510624E+05 -2.440231E+05 -7.901710E+04  7.483197E+04 -7.196471E-12  5.402523E-12
        26   4 -3.011914E+05 -1.739592E+05 -9.503010E+04  1.236851E+05 -2.481542E-12  1.654361E-12
        26   5 -2.321730E+05 -2.014859E+05 -8.673178E+04  9.781173E+04 -8.271806E-13 -4.963084E-13
        26   6 -1.496307E+05 -2.130480E+05 -7.253575E+04  6.305034E+04 -3.474159E-12  5.045802E-12
        26   7 -2.596735E+05 -1.612214E+05 -8.417899E+04  1.024858E+05 -2.977850E-12  2.646978E-12
        26   8 -2.178823E+05 -1.820390E+05 -7.998426E+04  8.484035E+04 -3.308722E-12  2.812414E-12
        26   9 -1.548181E+05 -1.764346E+05 -6.625055E+04  5.294886E+04 -2.233388E-12  4.177262E-12
        26  10 -3.382063E+05 -1.868939E+05 -1.050200E+05  1.439464E+05  8.271806E-14 -1.654361E-13
        26  11 -2.484054E+05 -2.195268E+05 -9.358645E+04  1.117949E+05  4.549493E-13  2.067952E-13
        26  12 -1.510624E+05 -2.440231E+05 -7.901710E+04  7.483197E+04 -1.240771E-13 -1.861156E-13
        26  13 -3.011914E+05 -1.739592E+05 -9.503010E+04  1.236851E+05  1.654361E-13 -1.654361E-13
        26  14 -2.321730E+05 -2.014859E+05 -8.673178E+04  9.781173E+04  4.963084E-13  1.654361E-13
        26  15 -1.496307E+05 -2.130480E+05 -7.253575E+04  6.305034E+04  2.274747E-13  6.203855E-14
        26  16 -2.596735E+05 -1.612214E+05 -8.417899E+04  1.024858E+05 -8.271806E-14  8.271806E-14
        26  17 -2.178823E+05 -1.820390E+05 -7.998426E+04  8.484035E+04 -8.271806E-14  0.000000E+00
        26  18 -1.548181E+05 -1.764346E+05 -6.625055E+04  5.294886E+04  1.240771E-13  6.203855E-14
        26  19 -3.382063E+05 -1.868939E+05 -1.050200E+05  1.439464E+05  3.019209E-12 -3.763672E-12
        26  20 -2.484054E+05 -2.195268E+05 -9.358645E+04  1.117949E+05  8.892192E-13 -3.226004E-12
        26  21 -1.510624E+05 -2.440231E+05 -7.901710E+04  7.483197E+04  7.196471E-12 -5.402523E-12
        26  22 -3.011914E+05 -1.739592E+05 -9.503010E+04  1.236851E+05  2.481542E-12 -1.654361E-12
        26  23 -2.321730E+05 -2.014859E+05 -8.673178E+04  9.781173E+04  1.654361E-13 -1.654361E-13
        26  24 -1.496307E+05 -2.130480E+05 -7.253575E+04  6.305034E+04  3.474159E-12 -4.384057E-12
        26  25 -2.596735E+05 -1.612214E+05 -8.417899E+04  1.024858E+05  2.977850E-12 -2.646978E-12
        26  26 -2.178823E+05 -1.820390E+05 -7.998426E+04  8.484035E+04  3.308722E-12 -2.150670E-12
        26  27 -1.548181E+05 -1.764346E+05 -6.625055E+04  5.294886E+04  2.895132E-12 -3.515518E-12
        27   1 -2.433989E+05 -1.496574E+05 -7.861127E+04  9.114156E+04 -8.685396E-13  1.613002E-12
        27   2 -2.008373E+05 -1.570535E+05 -7.157816E+04  6.981924E+04 -2.357465E-12  2.750376E-12
        27   3 -1.589986E+05 -1.654576E+05 -6.489124E+04  4.899781E+04 -2.018838E-12  3.406950E-12
        27   4 -2.325308E+05 -1.284593E+05 -7.219802E+04  7.505388E+04 -9.098987E-13  1.985233E-12
        27   5 -2.002236E+05 -1.380261E+05 -6.764993E+04  5.970178E+04 -7.031035E-13  5.376674E-13
        27   6 -1.667931E+05 -1.454957E+05 -6.245776E+04  4.350675E+04 -1.530284E-12  1.912855E-12
        27   7 -2.145242E+05 -1.086372E+05 -6.463229E+04  5.626362E+04 -1.654361E-13  1.406207E-12
        27   8 -1.959866E+05 -1.198661E+05 -6.317055E+04  4.898114E+04 -4.963084E-13  1.654361E-12
        27   9 -1.736141E+05 -1.240848E+05 -5.953979E+04  3.885687E+04 -1.116694E-12  1.964554E-12
        27  10 -2.433989E+05 -1.496574E+05 -7.861127E+04  9.114156E+04 -4.135903E-14 -8.271806E-14
        27  11 -2.008373E+05 -1.570535E+05 -7.157816E+04  6.981924E+04  2.274747E-13  4.135903E-14
        27  12 -1.589986E+05 -1.654576E+05 -6.489124E+04  4.899781E+04  1.189072E-13  5.169879E-14
        27  13 -2.325308E+05 -1.284593E+05 -7.219802E+04  7.505388E+04  0.000000E+00  0.000000E+00
        27  14 -2.002236E+05 -1.380261E+05 -6.764993E+04  5.970178E+04  8.271806E-14 -1.654361E-13
        27  15 -1.667931E+05 -1.454957E+05 -6.245776E+04  4.350675E+04  6.203855E-14  2.067952E-14
        27  16 -2.145242E+05 -1.086372E+05 -6.463229E+04  5.626362E+04 -4.135903E-14  4.135903E-14
        27  17 -1.959866E+05 -1.198661E+05 -6.317055E+04  4.898114E+04  2.067952E-14 -1.447566E-13
        27  18 -1.736141E+05 -1.240848E+05 -5.953979E+04  3.885687E+04  2.067952E-14  5.169879E-14
        27  19 -2.433989E+05 -1.496574E+05 -7.861127E+04  9.114156E+04  1.530284E-12 -1.943874E-12
        27  20 -2.008373E+05 -1.570535E+05 -7.157816E+04  6.981924E+04  2.357465E-12 -2.419503E-12
        27  21 -1.589986E+05 -1.654576E+05 -6.489124E+04  4.899781E+04  2.018838E-12 -3.737822E-12
        27  22 -2.325308E+05 -1.284593E+05 -7.219802E+04  7.505388E+04  1.571643E-12 -1.323489E-12
        27  23 -2.002236E+05 -1.380261E+05 -6.764993E+04  5.970178E+04  3.722313E-13 -5.376674E-13
        27  24 -1.667931E+05 -1.454957E+05 -6.245776E+04  4.350675E+04  2.192029E-12 -2.574600E-12
        27  25 -2.145242E+05 -1.086372E+05 -6.463229E+04  5.626362E+04  8.271806E-13 -1.406207E-12
        27  26 -1.959866E+05 -1.198661E+05 -6.317055E+04  4.898114E+04  1.158053E-12 -1.819797E-12
        27  27 -1.736141E+05 -1.240848E+05 -5.953979E+04  3.885687E+04  1.116694E-12 -2.460862E-12
        28   1 -3.716481E+05 -1.016961E+05 -9.466885E+04  1.298066E+05 -2.714186E-13  2.042102E-13
        28   2 -3.261317E+05 -1.214457E+05 -8.951549E+04  1.153644E+05 -4.963084E-13  8.065011E-13
        28   3 -2.815777E+05 -1.429513E+05 -8.490580E+04  1.016452E+05 -1.716400E-12  2.005913E-12
        28   4 -3.237334E+05 -8.898150E+04 -8.254299E+04  1.074952E+05 -2.171349E-13  3.101927E-13
        28   5 -2.862882E+05 -1.063520E+05 -7.852806E+04  9.506823E+04  2.895132E-13  1.654361E-13
        28   6 -2.469860E+05 -1.217581E+05 -7.374883E+04  8.141877E+04 -1.406207E-12  1.240771E-12
        28   7 -2.796002E+05 -7.738708E+04 -7.139745E+04  8.257162E+04 -8.271806E-14  2.067952E-13
        28   8 -2.572878E+05 -9.378956E+04 -7.021547E+04  7.478342E+04 -1.654361E-13  5.790264E-13
        28   9 -2.291520E+05 -1.025880E+05 -6.634798E+04  6.292051E+04  0.000000E+00  9.926167E-13
        28  10 -3.716481E+05 -1.016961E+05 -9.466885E+04  1.298066E+05  9.047288E-15 -1.292470E-14
        28  11 -3.261317E+05 -1.214457E+05 -8.951549E+04  1.153644E+05  4.652891E-14 -4.911385E-14
        28  12 -2.815777E+05 -1.429513E+05 -8.490580E+04  1.016452E+05 -1.680211E-14  8.401053E-14
        28  13 -3.237334E+05 -8.898150E+04 -8.254299E+04  1.074952E+05  0.000000E+00  0.000000E+00
        28  14 -2.862882E+05 -1.063520E+05 -7.852806E+04  9.506823E+04 -2.067952E-14 -4.135903E-14
        28  15 -2.469860E+05 -1.217581E+05 -7.374883E+04  8.141877E+04 -8.271806E-14 -2.067952E-14
        28  16 -2.796002E+05 -7.738708E+04 -7.139745E+04  8.257162E+04  1.033976E-14  0.000000E+00
        28  17 -2.572878E+05 -9.378956E+04 -7.021547E+04  7.478342E+04 -4.135903E-14 -2.067952E-14
        28  18 -2.291520E+05 -1.025880E+05 -6.634798E+04  6.292051E+04  0.000000E+00  2.067952E-14
        28  19 -3.716481E+05 -1.016961E+05 -9.466885E+04  1.298066E+05  2.714186E-13 -2.455692E-13
        28  20 -3.261317E+05 -1.214457E+05 -8.951549E+04  1.153644E+05  6.617445E-13 -6.410650E-13
        28  21 -2.815777E+05 -1.429513E+05 -8.490580E+04  1.016452E+05  1.716400E-12 -2.005913E-12
        28  22 -3.237334E+05 -8.898150E+04 -8.254299E+04  1.074952E+05  2.171349E-13 -3.101927E-13
        28  23 -2.862882E+05 -1.063520E+05 -7.852806E+04  9.506823E+04  4.135903E-14 -1.654361E-13
        28  24 -2.469860E+05 -1.217581E+05 -7.374883E+04  8.141877E+04  7.444626E-13 -1.902515E-12
        28  25 -2.796002E+05 -7.738708E+04 -7.139745E+04  8.257162E+04  1.240771E-13 -2.067952E-13
        28  26 -2.572878E+05 -9.378956E+04 -7.021547E+04  7.478342E+04  3.308722E-13 -4.963084E-13
        28  27 -2.291520E+05 -1.025880E+05 -6.634798E+04  6.292051E+04  3.308722E-13 -1.158053E-12
        29   1 -4.496593E+05 -1.998800E+05 -1.299079E+05  1.782858E+05  1.124966E-11 -5.293956E-12
        29   2 -4.729331E+05 -2.130306E+05 -1.371927E+05  1.980331E+05  1.158053E-11 -1.985233E-11
        29   3 -4.941045E+05 -2.295745E+05 -1.447358E+05  2.178297E+05  1.927331E-11 -2.150670E-11
        29   4 -4.293879E+05 -2.247394E+05 -1.308255E+05  1.731009E+05  1.058791E-11 -3.176374E-11
        29   5 -4.506111E+05 -2.351750E+05 -1.371572E+05  1.900547E+05  2.646978E-12  5.293956E-12
        29   6 -4.701318E+05 -2.488195E+05 -1.437903E+05  2.070976E+05  2.249931E-11 -1.588187E-11
        29   7 -4.074470E+05 -2.453030E+05 -1.305500E+05  1.664164E+05  5.293956E-12  1.058791E-11
        29   8 -4.270870E+05 -2.534996E+05 -1.361173E+05  1.808998E+05  5.293956E-12 -5.293956E-12
        29   9 -4.453968E+05 -2.647502E+05 -1.420294E+05  1.955049E+05  9.264423E-12  1.588187E-11
        29  10 -4.496593E+05 -1.998800E+05 -1.299079E+05  1.782858E+05  0.000000E+00  0.000000E+00
        29  11 -4.729331E+05 -2.130306E+05 -1.371927E+05  1.980331E+05 -2.646978E-12  1.985233E-12
        29  12 -4.941045E+05 -2.295745E+05 -1.447358E+05  2.178297E+05  3.308722E-13  1.323489E-12
        29  13 -4.293879E+05 -2.247394E+05 -1.308255E+05  1.731009E+05 -2.646978E-12  0.000000E+00
        29  14 -4.506111E+05 -2.351750E+05 -1.371572E+05  1.900547E+05 -5.293956E-12 -5.293956E-12
        29  15 -4.701318E+05 -2.488195E+05 -1.437903E+05  2.070976E+05 -1.323489E-12 -5.293956E-12
        29  16 -4.074470E+05 -2.453030E+05 -1.305500E+05  1.664164E+05  1.323489E-12  0.000000E+00
        29  17 -4.270870E+05 -2.534996E+05 -1.361173E+05  1.808998E+05 -1.985233E-12  3.970467E-12
        29  18 -4.453968E+05 -2.647502E+05 -1.420294E+05  1.955049E+05  1.654361E-12 -6.617445E-13
        29  19 -4.496593E+05 -1.998800E+05 -1.299079E+05  1.782858E+05 -1.124966E-11 -5.293956E-12
        29  20 -4.729331E+05 -2.130306E+05 -1.371927E+05  1.980331E+05 -9.926167E-13  9.264423E-12
        29  21 -4.941045E+05 -2.295745E+05 -1.447358E+05  2.178297E+05 -1.927331E-11  1.091878E-11
        29  22 -4.293879E+05 -2.247394E+05 -1.308255E+05  1.731009E+05 -1.058791E-11  1.058791E-11
        29  23 -4.506111E+05 -2.351750E+05 -1.371572E+05  1.900547E+05 -2.646978E-12 -2.646978E-11
        29  24 -4.701318E+05 -2.488195E+05 -1.437903E+05  2.070976E+05 -1.191140E-11  2.646978E-11
        29  25 -4.074470E+05 -2.453030E+05 -1.305500E+05  1.664164E+05 -1.588187E-11  0.000000E+00
        29  26 -4.270870E+05 -2.534996E+05 -1.361173E+05  1.808998E+05  5.293956E-12  1.588187E-11
        29  27 -4.453968E+05 -2.647502E+05 -1.420294E+05  1.955049E+05 -9.264423E-12  5.293956E-12
        30   1 -5.065294E+05 -2.403711E+05 -1.493801E+05  2.298124E+05  5.955700E-12 -2.779327E-11
        30   2 -5.237366E+05 -2.548607E+05 -1.557195E+05  2.484826E+05  1.124966E-11 -4.632211E-12
        30   3 -5.384097E+05 -2.729975E+05 -1.622814E+05  2.667460E+05  1.522012E-11 -8.271806E-12
        30   4 -4.809728E+05 -2.559177E+05 -1.473781E+05  2.166296E+05  1.588187E-11 -2.117582E-11
        30   5 -4.980881E+05 -2.660147E+05 -1.528206E+05  2.321683E+05  7.940934E-12  1.852885E-11
        30   6 -5.134006E+05 -2.795933E+05 -1.585988E+05  2.474604E+05  8.271806E-12  6.617445E-13
        30   7 -4.567340E+05 -2.703112E+05 -1.454090E+05  2.039407E+05  1.058791E-11  1.058791E-11
        30   8 -4.743610E+05 -2.767896E+05 -1.502301E+05  2.168052E+05  7.940934E-12  0.000000E+00
        30   9 -4.908268E+05 -2.865504E+05 -1.554754E+05  2.295321E+05  2.316106E-11 -3.441071E-11
        30  10 -5.065294E+05 -2.403711E+05 -1.493801E+05  2.298124E+05  2.646978E-12  1.323489E-12
        30  11 -5.237366E+05 -2.548607E+05 -1.557195E+05  2.484826E+05  1.985233E-12  2.646978E-12
        30  12 -5.384097E+05 -2.729975E+05 -1.622814E+05  2.667460E+05 -1.654361E-13  1.488925E-12
        30  13 -4.809728E+05 -2.559177E+05 -1.473781E+05  2.166296E+05  2.646978E-12  0.000000E+00
        30  14 -4.980881E+05 -2.660147E+05 -1.528206E+05  2.321683E+05  0.000000E+00 -6.617445E-12
        30  15 -5.134006E+05 -2.795933E+05 -1.585988E+05  2.474604E+05 -3.308722E-13 -3.970467E-12
        30  16 -4.567340E+05 -2.703112E+05 -1.454090E+05  2.039407E+05 -2.646978E-12 -1.323489E-12
        30  17 -4.743610E+05 -2.767896E+05 -1.502301E+05  2.168052E+05 -2.646978E-12 -3.970467E-12
        30  18 -4.908268E+05 -2.865504E+05 -1.554754E+05  2.295321E+05 -2.316106E-12  1.654361E-13
        30  19 -5.065294E+05 -2.403711E+05 -1.493801E+05  2.298124E+05  4.632211E-12  6.617445E-12
        30  20 -5.237366E+05 -2.548607E+05 -1.557195E+05  2.484826E+05 -1.124966E-11  4.632211E-12
        30  21 -5.384097E+05 -2.729975E+05 -1.622814E+05  2.667460E+05 -1.522012E-11  1.885972E-11
        30  22 -4.809728E+05 -2.559177E+05 -1.473781E+05  2.166296E+05 -5.293956E-12  0.000000E+00
        30  23 -4.980881E+05 -2.660147E+05 -1.528206E+05  2.321683E+05 -7.940934E-12 -7.940934E-12
        30  24 -5.134006E+05 -2.795933E+05 -1.585988E+05  2.474604E+05 -1.885972E-11 -6.617445E-13
        30  25 -4.567340E+05 -2.703112E+05 -1.454090E+05  2.039407E+05 -1.058791E-11 -1.058791E-11
        30  26 -4.743610E+05 -2.767896E+05 -1.502301E+05  2.168052E+05 -7.940934E-12  1.058791E-11
        30  27 -4.908268E+05 -2.865504E+05 -1.554754E+05  2.295321E+05 -1.257315E-11  3.441071E-11
        31   1 -4.470839E+05 -2.744881E+05 -1.443144E+05  1.953199E+05 -6.617445E-13  4.632211E-12
        31   2 -4.647670E+05 -2.787226E+05 -1.486979E+05  2.075767E+05  7.279189E-12 -7.279189E-12
        31   3 -4.824191E+05 -2.856936E+05 -1.536225E+05  2.193382E+05  2.175485E-11  2.125854E-11
        31   4 -4.320386E+05 -2.757762E+05 -1.415630E+05  1.819257E+05 -2.646978E-12  1.058791E-11
        31   5 -4.512465E+05 -2.766005E+05 -1.455694E+05  1.934990E+05  7.940934E-12  2.646978E-12
        31   6 -4.705034E+05 -2.797844E+05 -1.500576E+05  2.045116E+05  1.257315E-11 -9.926167E-12
        31   7 -4.189783E+05 -2.785890E+05 -1.395134E+05  1.697304E+05 -5.293956E-12  0.000000E+00
        31   8 -4.399220E+05 -2.763185E+05 -1.432481E+05  1.807894E+05  1.588187E-11 -5.293956E-12
        31   9 -4.610146E+05 -2.760763E+05 -1.474182E+05  1.912421E+05 -2.646978E-12 -6.617445E-12
        31  10 -4.470839E+05 -2.744881E+05 -1.443144E+05  1.953199E+05  6.617445E-13  0.000000E+00
        31  11 -4.647670E+05 -2.787226E+05 -1.486979E+05  2.075767E+05  3.308722E-12 -3.308722E-12
        31  12 -4.824191E+05 -2.856936E+05 -1.536225E+05  2.193382E+05  5.790264E-13 -1.654361E-12
        31  13 -4.320386E+05 -2.757762E+05 -1.415630E+05  1.819257E+05  0.000000E+00  0.000000E+00
        31  14 -4.512465E+05 -2.766005E+05 -1.455694E+05  1.934990E+05  1.323489E-12  1.323489E-12
        31  15 -4.705034E+05 -2.797844E+05 -1.500576E+05  2.045116E+05 -1.985233E-12  6.617445E-13
        31  16 -4.189783E+05 -2.785890E+05 -1.395134E+05  1.697304E+05  6.617445E-13 -3.970467E-12
        31  17 -4.399220E+05 -2.763185E+05 -1.432481E+05  1.807894E+05 -6.617445E-13 -6.617445E-13
        31  18 -4.610146E+05 -2.760763E+05 -1.474182E+05  1.912421E+05 -5.790264E-13 -1.323489E-12
        31  19 -4.470839E+05 -2.744881E+05 -1.443144E+05  1.953199E+05  6.617445E-13  1.654361E-11
        31  20 -4.647670E+05 -2.787226E+05 -1.486979E+05  2.075767E+05 -7.279189E-12 -3.308722E-12
        31  21 -4.824191E+05 -2.856936E+05 -1.536225E+05  2.193382E+05 -5.872982E-12 -8.271806E-14
        31  22 -4.320386E+05 -2.757762E+05 -1.415630E+05  1.819257E+05 -1.323489E-11  1.058791E-11
        31  23 -4.512465E+05 -2.766005E+05 -1.455694E+05  1.934990E+05 -2.646978E-12 -2.646978E-12
        31  24 -4.705034E+05 -2.797844E+05 -1.500576E+05  2.045116E+05 -7.279189E-12 -6.617445E-13
        31  25 -4.189783E+05 -2.785890E+05 -1.395134E+05  1.697304E+05 -1.588187E-11 -1.058791E-11
        31  26 -4.399220E+05 -2.763185E+05 -1.432481E+05  1.807894E+05 -5.293956E-12  1.588187E-11
        31  27 -4.610146E+05 -2.760763E+05 -1.474182E+05  1.912421E+05 -7.940934E-12  1.323489E-12
        32   1 -3.980718E+05 -2.541986E+05 -1.304541E+05  1.593936E+05 -3.308722E-12  1.191140E-11
        32   2 -4.166766E+05 -2.611056E+05 -1.355564E+05  1.735615E+05  1.058791E-11 -2.117582E-11
        32   3 -4.354946E+05 -2.701866E+05 -1.411362E+05  1.872690E+05  2.390552E-11 -2.481542E-12
        32   4 -3.825406E+05 -2.638927E+05 -1.292867E+05  1.465379E+05 -1.323489E-11 -5.293956E-12
        32   5 -4.015576E+05 -2.680301E+05 -1.339175E+05  1.607538E+05  0.000000E+00  2.382280E-11
        32   6 -4.207079E+05 -2.740110E+05 -1.389438E+05  1.745143E+05 -2.316106E-12  6.617445E-12
        32   7 -3.672869E+05 -2.737519E+05 -1.282078E+05  1.338347E+05 -5.293956E-12 -1.058791E-11
        32   8 -3.867866E+05 -2.753357E+05 -1.324245E+05  1.481696E+05 -5.293956E-12 -5.293956E-12
        32   9 -4.063504E+05 -2.784685E+05 -1.369638E+05  1.620616E+05 -8.602678E-12  0.000000E+00
        32  10 -3.980718E+05 -2.541986E+05 -1.304541E+05  1.593936E+05  1.985233E-12 -1.323489E-12
        32  11 -4.166766E+05 -2.611056E+05 -1.355564E+05  1.735615E+05  3.308722E-13 -1.985233E-12
        32  12 -4.354946E+05 -2.701866E+05 -1.411362E+05  1.872690E+05  1.737079E-12  0.000000E+00
        32  13 -3.825406E+05 -2.638927E+05 -1.292867E+05  1.465379E+05  2.646978E-12  0.000000E+00
        32  14 -4.015576E+05 -2.680301E+05 -1.339175E+05  1.607538E+05  1.323489E-12  0.000000E+00
        32  15 -4.207079E+05 -2.740110E+05 -1.389438E+05  1.745143E+05  3.308722E-13 -9.926167E-13
        32  16 -3.672869E+05 -2.737519E+05 -1.282078E+05  1.338347E+05  0.000000E+00 -1.323489E-12
        32  17 -3.867866E+05 -2.753357E+05 -1.324245E+05  1.481696E+05  9.926167E-13  4.632211E-12
        32  18 -4.063504E+05 -2.784685E+05 -1.369638E+05  1.620616E+05 -1.240771E-12 -9.926167E-13
        32  19 -3.980718E+05 -2.541986E+05 -1.304541E+05  1.593936E+05 -7.279189E-12 -1.191140E-11
        32  20 -4.166766E+05 -2.611056E+05 -1.355564E+05  1.735615E+05 -1.058791E-11  0.000000E+00
        32  21 -4.354946E+05 -2.701866E+05 -1.411362E+05  1.872690E+05 -2.729696E-12  1.306945E-11
        32  22 -3.825406E+05 -2.638927E+05 -1.292867E+05  1.465379E+05 -7.940934E-12  2.646978E-11
        32  23 -4.015576E+05 -2.680301E+05 -1.339175E+05  1.607538E+05  1.058791E-11 -1.323489E-11
        32  24 -4.207079E+05 -2.740110E+05 -1.389438E+05  1.745143E+05 -8.271806E-12 -6.617445E-12
        32  25 -3.672869E+05 -2.737519E+05 -1.282078E+05  1.338347E+05 -5.293956E-12  1.058791E-11
        32  26 -3.867866E+05 -2.753357E+05 -1.324245E+05  1.481696E+05 -5.293956E-12  5.293956E-12
        32  27 -4.063504E+05 -2.784685E+05 -1.369638E+05  1.620616E+05  8.602678E-12 -1.058791E-11
        33   1 -3.792534E+05 -2.540192E+05 -1.266545E+05  1.443206E+05  8.271806E-12 -4.301339E-12
        33   2 -3.957109E+05 -2.486540E+05 -1.288730E+05  1.494052E+05  9.926167E-13 -1.323489E-12
        33   3 -4.113810E+05 -2.430910E+05 -1.308944E+05  1.545787E+05  1.182868E-11 -1.079471E-11
        33   4 -3.868133E+05 -2.418474E+05 -1.257321E+05  1.483856E+05  1.323489E-12 -2.646978E-12
        33   5 -4.055717E+05 -2.367915E+05 -1.284726E+05  1.528734E+05 -1.985233E-12 -9.264423E-12
        33   6 -4.235219E+05 -2.315311E+05 -1.310106E+05  1.574432E+05  1.290402E-11  6.617445E-13
        33   7 -3.942033E+05 -2.282480E+05 -1.244902E+05  1.528463E+05  0.000000E+00  5.293956E-12
        33   8 -4.151792E+05 -2.234694E+05 -1.277297E+05  1.567682E+05  2.646978E-12  0.000000E+00
        33   9 -4.353261E+05 -2.184795E+05 -1.307611E+05  1.607677E+05  1.654361E-12 -2.316106E-12
        33  10 -3.792534E+05 -2.540192E+05 -1.266545E+05  1.443206E+05  1.654361E-12  0.000000E+00
        33  11 -3.957109E+05 -2.486540E+05 -1.288730E+05  1.494052E+05 -1.323489E-12  1.323489E-12
        33  12 -4.113810E+05 -2.430910E+05 -1.308944E+05  1.545787E+05  2.895132E-13 -1.075335E-12
        33  13 -3.868133E+05 -2.418474E+05 -1.257321E+05  1.483856E+05 -1.323489E-12 -1.323489E-12
        33  14 -4.055717E+05 -2.367915E+05 -1.284726E+05  1.528734E+05  1.985233E-12  1.323489E-12
        33  15 -4.235219E+05 -2.315311E+05 -1.310106E+05  1.574432E+05  3.308722E-13 -3.308722E-13
        33  16 -3.942033E+05 -2.282480E+05 -1.244902E+05  1.528463E+05 -6.617445E-13  0.000000E+00
        33  17 -4.151792E+05 -2.234694E+05 -1.277297E+05  1.567682E+05 -6.617445E-13 -6.617445E-13
        33  18 -4.353261E+05 -2.184795E+05 -1.307611E+05  1.607677E+05  2.067952E-13 -9.098987E-13
        33  19 -3.792534E+05 -2.540192E+05 -1.266545E+05  1.443206E+05  2.316106E-12 -9.926167E-13
        33  20 -3.957109E+05 -2.486540E+05 -1.288730E+05  1.494052E+05 -6.286573E-12  1.191140E-11
        33  21 -4.113810E+05 -2.430910E+05 -1.308944E+05  1.545787E+05 -1.182868E-11  1.079471E-11
        33  22 -3.868133E+05 -2.418474E+05 -1.257321E+05  1.483856E+05 -1.323489E-12  7.940934E-12
        33  23 -4.055717E+05 -2.367915E+05 -1.284726E+05  1.528734E+05  7.279189E-12 -1.323489E-12
        33  24 -4.235219E+05 -2.315311E+05 -1.310106E+05  1.574432E+05 -7.610062E-12 -6.617445E-13
        33  25 -3.942033E+05 -2.282480E+05 -1.244902E+05  1.528463E+05  0.000000E+00  5.293956E-12
        33  26 -4.151792E+05 -2.234694E+05 -1.277297E+05  1.567682E+05 -7.940934E-12  0.000000E+00
        33  27 -4.353261E+05 -2.184795E+05 -1.307611E+05  1.607677E+05 -1.654361E-12 -2.977850E-12
        34   1 -4.205563E+05 -2.408886E+05 -1.322890E+05  1.573638E+05 -1.985233E-12 -2.646978E-12
        34   2 -4.360373E+05 -2.376000E+05 -1.347275E+05  1.610769E+05 -1.654361E-12  6.782881E-12
        34   3 -4.505625E+05 -2.340720E+05 -1.369269E+05  1.648970E+05 -1.228363E-11 -1.220091E-11
        34   4 -4.335857E+05 -2.288784E+05 -1.324928E+05  1.599932E+05  5.293956E-12 -2.646978E-12
        34   5 -4.503216E+05 -2.256910E+05 -1.352025E+05  1.633154E+05  1.985233E-12  5.293956E-12
        34   6 -4.660882E+05 -2.222583E+05 -1.376693E+05  1.667358E+05  2.316106E-12  3.805031E-12
        34   7 -4.464758E+05 -2.163087E+05 -1.325569E+05  1.625869E+05 -5.293956E-12  2.646978E-12
        34   8 -4.644759E+05 -2.132288E+05 -1.355409E+05  1.655222E+05 -2.646978E-12  6.617445E-12
        34   9 -4.814959E+05 -2.098994E+05 -1.382791E+05  1.685487E+05  6.617445E-12  6.286573E-12
        34  10 -4.205563E+05 -2.408886E+05 -1.322890E+05  1.573638E+05  9.926167E-13  0.000000E+00
        34  11 -4.360373E+05 -2.376000E+05 -1.347275E+05  1.610769E+05  6.617445E-13  2.646978E-12
        34  12 -4.505625E+05 -2.340720E+05 -1.369269E+05  1.648970E+05  0.000000E+00 -3.308722E-13
        34  13 -4.335857E+05 -2.288784E+05 -1.324928E+05  1.599932E+05 -1.323489E-12  0.000000E+00
        34  14 -4.503216E+05 -2.256910E+05 -1.352025E+05  1.633154E+05  6.617445E-13  0.000000E+00
        34  15 -4.660882E+05 -2.222583E+05 -1.376693E+05  1.667358E+05 -9.926167E-13 -1.323489E-12
        34  16 -4.464758E+05 -2.163087E+05 -1.325569E+05  1.625869E+05  6.617445E-13 -6.617445E-13
        34  17 -4.644759E+05 -2.132288E+05 -1.355409E+05  1.655222E+05  0.000000E+00  1.323489E-12
        34  18 -4.814959E+05 -2.098994E+05 -1.382791E+05  1.685487E+05 -8.271806E-14 -1.158053E-12
        34  19 -4.205563E+05 -2.408886E+05 -1.322890E+05  1.573638E+05  1.985233E-12  2.646978E-12
        34  20 -4.360373E+05 -2.376000E+05 -1.347275E+05  1.610769E+05 -3.639595E-12  3.805031E-12
        34  21 -4.505625E+05 -2.340720E+05 -1.369269E+05  1.648970E+05  1.695720E-12  1.613002E-12
        34  22 -4.335857E+05 -2.288784E+05 -1.324928E+05  1.599932E+05 -5.293956E-12 -2.646978E-12
        34  23 -4.503216E+05 -2.256910E+05 -1.352025E+05  1.633154E+05 -7.279189E-12  5.293956E-12
        34  24 -4.660882E+05 -2.222583E+05 -1.376693E+05  1.667358E+05  2.977850E-12  1.488925E-12
        34  25 -4.464758E+05 -2.163087E+05 -1.325569E+05  1.625869E+05  0.000000E+00  2.646978E-12
        34  26 -4.644759E+05 -2.132288E+05 -1.355409E+05  1.655222E+05  2.646978E-12 -1.323489E-12
        34  27 -4.814959E+05 -2.098994E+05 -1.382791E+05  1.685487E+05 -1.323489E-12 -9.926167E-13
        35   1 -4.547245E+05 -2.090040E+05 -1.327457E+05  1.637804E+05  4.301339E-12  6.617445E-13
        35   2 -4.741002E+05 -2.063287E+05 -1.360858E+05  1.661901E+05  5.790264E-12 -5.624828E-12
        35   3 -4.912543E+05 -2.030176E+05 -1.388544E+05  1.689264E+05 -1.737079E-12  2.688337E-12
        35   4 -4.699205E+05 -1.971815E+05 -1.334204E+05  1.655609E+05  3.970467E-12  9.264423E-12
        35   5 -4.904635E+05 -1.948082E+05 -1.370543E+05  1.675154E+05 -3.308722E-12  3.970467E-12
        35   6 -5.089665E+05 -1.918544E+05 -1.401642E+05  1.697624E+05 -1.488925E-12 -5.955700E-12
        35   7 -4.853548E+05 -1.863025E+05 -1.343315E+05  1.671978E+05 -2.646978E-12  0.000000E+00
        35   8 -5.070786E+05 -1.842417E+05 -1.382641E+05  1.687409E+05  5.293956E-12 -3.970467E-12
        35   9 -5.269181E+05 -1.816482E+05 -1.417133E+05  1.705490E+05 -4.632211E-12 -3.308722E-13
        35  10 -4.547245E+05 -2.090040E+05 -1.327457E+05  1.637804E+05  3.308722E-13  3.308722E-13
        35  11 -4.741002E+05 -2.063287E+05 -1.360858E+05  1.661901E+05 -1.654361E-13 -1.654361E-13
        35  12 -4.912543E+05 -2.030176E+05 -1.388544E+05  1.689264E+05 -4.549493E-13  7.031035E-13
        35  13 -4.699205E+05 -1.971815E+05 -1.334204E+05  1.655609E+05 -1.323489E-12  0.000000E+00
        35  14 -4.904635E+05 -1.948082E+05 -1.370543E+05  1.675154E+05 -1.323489E-12  6.617445E-13
        35  15 -5.089665E+05 -1.918544E+05 -1.401642E+05  1.697624E+05 -3.308722E-13 -6.617445E-13
        35  16 -4.853548E+05 -1.863025E+05 -1.343315E+05  1.671978E+05 -3.308722E-13  3.308722E-13
        35  17 -5.070786E+05 -1.842417E+05 -1.382641E+05  1.687409E+05 -6.617445E-13  0.000000E+00
        35  18 -5.269181E+05 -1.816482E+05 -1.417133E+05  1.705490E+05 -6.617445E-13  8.271806E-13
        35  19 -4.547245E+05 -2.090040E+05 -1.327457E+05  1.637804E+05 -6.948317E-12  9.926167E-12
        35  20 -4.741002E+05 -2.063287E+05 -1.360858E+05  1.661901E+05 -4.963084E-13  5.624828E-12
        35  21 -4.912543E+05 -2.030176E+05 -1.388544E+05  1.689264E+05 -9.098987E-13 -2.688337E-12
        35  22 -4.699205E+05 -1.971815E+05 -1.334204E+05  1.655609E+05  1.323489E-12  1.323489E-12
        35  23 -4.904635E+05 -1.948082E+05 -1.370543E+05  1.675154E+05 -1.985233E-12 -3.970467E-12
        35  24 -5.089665E+05 -1.918544E+05 -1.401642E+05  1.697624E+05  1.488925E-12  6.617445E-13
        35  25 -4.853548E+05 -1.863025E+05 -1.343315E+05  1.671978E+05  2.646978E-12  0.000000E+00
        35  26 -5.070786E+05 -1.842417E+05 -1.382641E+05  1.687409E+05 -7.940934E-12  3.970467E-12
        35  27 -5.269181E+05 -1.816482E+05 -1.417133E+05  1.705490E+05 -3.308722E-12 -4.963084E-12
        36   1 -3.997996E+05 -2.204392E+05 -1.240478E+05  1.547824E+05  1.124966E-11 -1.224227E-11
        36   2 -4.221157E+05 -2.159682E+05 -1.276168E+05  1.583451E+05  3.805031E-12 -1.323489E-12
        36   3 -4.429024E+05 -2.110188E+05 -1.307842E+05  1.622090E+05 -2.895132E-13 -9.098987E-13
        36   4 -4.090924E+05 -2.077132E+05 -1.233611E+05  1.573604E+05  2.646978E-12 -3.970467E-12
        36   5 -4.338516E+05 -2.038341E+05 -1.275371E+05  1.606339E+05 -2.646978E-12 -1.323489E-12
        36   6 -4.571767E+05 -1.995120E+05 -1.313377E+05  1.641877E+05  1.654361E-13  1.819797E-12
        36   7 -4.186978E+05 -1.956354E+05 -1.228666E+05  1.603613E+05 -2.646978E-12 -2.646978E-12
        36   8 -4.458473E+05 -1.923388E+05 -1.276372E+05  1.633737E+05  0.000000E+00 -5.293956E-12
        36   9 -4.716431E+05 -1.886293E+05 -1.320545E+05  1.666494E+05 -9.926167E-13 -3.639595E-12
        36  10 -3.997996E+05 -2.204392E+05 -1.240478E+05  1.547824E+05  0.000000E+00 -3.308722E-13
        36  11 -4.221157E+05 -2.159682E+05 -1.276168E+05  1.583451E+05 -1.654361E-13 -9.926167E-13
        36  12 -4.429024E+05 -2.110188E+05 -1.307842E+05  1.622090E+05  7.031035E-13  1.075335E-12
        36  13 -4.090924E+05 -2.077132E+05 -1.233611E+05  1.573604E+05  0.000000E+00  0.000000E+00
        36  14 -4.338516E+05 -2.038341E+05 -1.275371E+05  1.606339E+05  1.654361E-12  1.985233E-12
        36  15 -4.571767E+05 -1.995120E+05 -1.313377E+05  1.641877E+05 -1.406207E-12 -1.158053E-12
        36  16 -4.186978E+05 -1.956354E+05 -1.228666E+05  1.603613E+05  3.308722E-13  3.308722E-13
        36  17 -4.458473E+05 -1.923388E+05 -1.276372E+05  1.633737E+05 -1.158053E-12  6.617445E-13
        36  18 -4.716431E+05 -1.886293E+05 -1.320545E+05  1.666494E+05 -4.135903E-14 -4.135903E-14
        36  19 -3.997996E+05 -2.204392E+05 -1.240478E+05  1.547824E+05 -3.308722E-12  1.654361E-12
        36  20 -4.221157E+05 -2.159682E+05 -1.276168E+05  1.583451E+05  1.488925E-12 -3.970467E-12
        36  21 -4.429024E+05 -2.110188E+05 -1.307842E+05  1.622090E+05  2.895132E-13  6.203855E-12
        36  22 -4.090924E+05 -2.077132E+05 -1.233611E+05  1.573604E+05  2.646978E-12  1.323489E-12
        36  23 -4.338516E+05 -2.038341E+05 -1.275371E+05  1.606339E+05  0.000000E+00  1.323489E-12
        36  24 -4.571767E+05 -1.995120E+05 -1.313377E+05  1.641877E+05 -2.812414E-12  8.271806E-13
        36  25 -4.186978E+05 -1.956354E+05 -1.228666E+05  1.603613E+05  0.000000E+00  2.646978E-12
        36  26 -4.458473E+05 -1.923388E+05 -1.276372E+05  1.633737E+05  0.000000E+00  2.646978E-12
        36  27 -4.716431E+05 -1.886293E+05 -1.320545E+05  1.666494E+05 -4.301339E-12  3.639595E-12
        37   1 -4.469566E+05 -2.395826E+05 -1.373078E+05  1.649340E+05  1.985233E-12  1.323489E-12
        37   2 -4.323833E+05 -2.437264E+05 -1.352220E+05  1.603246E+05  7.940934E-12  1.124966E-11
        37   3 -4.166977E+05 -2.477559E+05 -1.328907E+05  1.556979E+05 -6.617445E-13 -3.060568E-12
        37   4 -4.486412E+05 -2.468711E+05 -1.391025E+05  1.679547E+05  5.293956E-12 -1.058791E-11
        37   5 -4.313484E+05 -2.513803E+05 -1.365457E+05  1.621820E+05 -6.617445E-12 -5.293956E-12
        37   6 -4.145154E+05 -2.566821E+05 -1.342395E+05  1.558595E+05 -6.617445E-12 -1.323489E-11
        37   7 -4.504642E+05 -2.548614E+05 -1.410651E+05  1.711359E+05  1.058791E-11  0.000000E+00
        37   8 -4.310276E+05 -2.589761E+05 -1.380007E+05  1.645844E+05  7.940934E-12  1.852885E-11
        37   9 -4.131412E+05 -2.646926E+05 -1.355668E+05  1.570183E+05  1.985233E-12 -3.970467E-12
        37  10 -4.469566E+05 -2.395826E+05 -1.373078E+05  1.649340E+05  0.000000E+00  0.000000E+00
        37  11 -4.323833E+05 -2.437264E+05 -1.352220E+05  1.603246E+05 -3.308722E-13 -3.308722E-13
        37  12 -4.166977E+05 -2.477559E+05 -1.328907E+05  1.556979E+05  6.617445E-13  4.963084E-13
        37  13 -4.486412E+05 -2.468711E+05 -1.391025E+05  1.679547E+05  1.323489E-12  2.646978E-12
        37  14 -4.313484E+05 -2.513803E+05 -1.365457E+05  1.621820E+05 -1.985233E-12 -2.646978E-12
        37  15 -4.145154E+05 -2.566821E+05 -1.342395E+05  1.558595E+05  1.488925E-12  1.158053E-12
        37  16 -4.504642E+05 -2.548614E+05 -1.410651E+05  1.711359E+05  6.617445E-13 -1.323489E-12
        37  17 -4.310276E+05 -2.589761E+05 -1.380007E+05  1.645844E+05 -3.308722E-13  1.654361E-12
        37  18 -4.131412E+05 -2.646926E+05 -1.355668E+05  1.570183E+05  1.654361E-13 -3.308722E-13
        37  19 -4.469566E+05 -2.395826E+05 -1.373078E+05  1.649340E+05 -1.985233E-12 -1.323489E-12
        37  20 -4.323833E+05 -2.437264E+05 -1.352220E+05  1.603246E+05 -7.940934E-12  4.632211E-12
        37  21 -4.166977E+05 -2.477559E+05 -1.328907E+05  1.556979E+05  5.955700E-12  3.060568E-12
        37  22 -4.486412E+05 -2.468711E+05 -1.391025E+05  1.679547E+05  0.000000E+00  0.000000E+00
        37  23 -4.313484E+05 -2.513803E+05 -1.365457E+05  1.621820E+05 -9.264423E-12 -5.293956E-12
        37  24 -4.145154E+05 -2.566821E+05 -1.342395E+05  1.558595E+05 -3.970467E-12  2.646978E-12
        37  25 -4.504642E+05 -2.548614E+05 -1.410651E+05  1.711359E+05 -1.058791E-11  5.293956E-12
        37  26 -4.310276E+05 -2.589761E+05 -1.380007E+05  1.645844E+05 -7.940934E-12 -2.646978E-12
        37  27 -4.131412E+05 -2.646926E+05 -1.355668E+05  1.570183E+05 -7.279189E-12  9.264423E-12
        38   1 -4.072929E+05 -2.502038E+05 -1.314993E+05  1.528828E+05  1.323489E-11 -6.617445E-12
        38   2 -3.908951E+05 -2.554017E+05 -1.292594E+05  1.470108E+05  8.602678E-12 -7.940934E-12
        38   3 -3.744454E+05 -2.611390E+05 -1.271169E+05  1.405683E+05 -3.639595E-12  8.106370E-12
        38   4 -4.047521E+05 -2.604927E+05 -1.330490E+05  1.519819E+05  2.646978E-12 -1.058791E-11
        38   5 -3.871813E+05 -2.654017E+05 -1.305166E+05  1.438052E+05  2.646978E-12  9.264423E-12
        38   6 -3.703985E+05 -2.713342E+05 -1.283465E+05  1.349111E+05  1.025704E-11  0.000000E+00
        38   7 -4.022179E+05 -2.684221E+05 -1.341280E+05  1.516041E+05  1.058791E-11 -5.293956E-12
        38   8 -3.835426E+05 -2.728637E+05 -1.312812E+05  1.417267E+05 -5.293956E-12  2.646978E-12
        38   9 -3.663153E+05 -2.787390E+05 -1.290109E+05  1.309328E+05  1.720536E-11 -1.786710E-11
        38  10 -4.072929E+05 -2.502038E+05 -1.314993E+05  1.528828E+05 -6.617445E-13  0.000000E+00
        38  11 -3.908951E+05 -2.554017E+05 -1.292594E+05  1.470108E+05  6.617445E-13 -1.985233E-12
        38  12 -3.744454E+05 -2.611390E+05 -1.271169E+05  1.405683E+05 -2.481542E-13 -5.790264E-13
        38  13 -4.047521E+05 -2.604927E+05 -1.330490E+05  1.519819E+05  0.000000E+00  1.323489E-12
        38  14 -3.871813E+05 -2.654017E+05 -1.305166E+05  1.438052E+05 -2.646978E-12  0.000000E+00
        38  15 -3.703985E+05 -2.713342E+05 -1.283465E+05  1.349111E+05  6.617445E-13 -9.926167E-13
        38  16 -4.022179E+05 -2.684221E+05 -1.341280E+05  1.516041E+05  1.323489E-12 -6.617445E-13
        38  17 -3.835426E+05 -2.728637E+05 -1.312812E+05  1.417267E+05  1.985233E-12 -6.617445E-13
        38  18 -3.663153E+05 -2.787390E+05 -1.290109E+05  1.309328E+05  0.000000E+00 -2.481542E-13
        38  19 -4.072929E+05 -2.502038E+05 -1.314993E+05  1.528828E+05 -7.940934E-12  6.617445E-12
        38  20 -3.908951E+05 -2.554017E+05 -1.292594E+05  1.470108E+05  1.985233E-12  2.646978E-12
        38  21 -3.744454E+05 -2.611390E+05 -1.271169E+05  1.405683E+05  3.639595E-12  2.481542E-12
        38  22 -4.047521E+05 -2.604927E+05 -1.330490E+05  1.519819E+05 -2.646978E-12 -1.058791E-11
        38  23 -3.871813E+05 -2.654017E+05 -1.305166E+05  1.438052E+05 -2.646978E-12 -9.264423E-12
        38  24 -3.703985E+05 -2.713342E+05 -1.283465E+05  1.349111E+05  3.308722E-13  0.000000E+00
        38  25 -4.022179E+05 -2.684221E+05 -1.341280E+05  1.516041E+05 -1.058791E-11  5.293956E-12
        38  26 -3.835426E+05 -2.728637E+05 -1.312812E+05  1.417267E+05 -5.293956E-12 -2.646978E-12
        38  27 -3.663153E+05 -2.787390E+05 -1.290109E+05  1.309328E+05 -1.720536E-11  7.279189E-12
        39   1 -4.011776E+05 -2.720870E+05 -1.346529E+05  1.521281E+05  4.632211E-12  0.000000E+00
        39   2 -3.823453E+05 -2.751078E+05 -1.314906E+05  1.415339E+05 -6.286573E-12  1.224227E-11
        39   3 -3.649730E+05 -2.803701E+05 -1.290686E+05  1.296960E+05  1.158053E-12  5.293956E-12
        39   4 -4.019788E+05 -2.757260E+05 -1.355410E+05  1.546688E+05  7.940934E-12 -1.058791E-11
        39   5 -3.823299E+05 -2.764367E+05 -1.317533E+05  1.425455E+05 -2.646978E-12 -5.293956E-12
        39   6 -3.646115E+05 -2.797169E+05 -1.288657E+05  1.290289E+05 -7.279189E-12 -5.624828E-12
        39   7 -4.028917E+05 -2.782421E+05 -1.362268E+05  1.576015E+05  1.058791E-11 -1.058791E-11
        39   8 -3.824502E+05 -2.766294E+05 -1.318159E+05  1.442529E+05  1.852885E-11 -1.058791E-11
        39   9 -3.643315E+05 -2.778628E+05 -1.284389E+05  1.293528E+05  7.279189E-12 -9.264423E-12
        39  10 -4.011776E+05 -2.720870E+05 -1.346529E+05  1.521281E+05 -6.617445E-13 -6.617445E-13
        39  11 -3.823453E+05 -2.751078E+05 -1.314906E+05  1.415339E+05 -3.308722E-13  0.000000E+00
        39  12 -3.649730E+05 -2.803701E+05 -1.290686E+05  1.296960E+05  8.271806E-14 -4.963084E-13
        39  13 -4.019788E+05 -2.757260E+05 -1.355410E+05  1.546688E+05  1.323489E-12  0.000000E+00
        39  14 -3.823299E+05 -2.764367E+05 -1.317533E+05  1.425455E+05  1.323489E-12  7.940934E-12
        39  15 -3.646115E+05 -2.797169E+05 -1.288657E+05  1.290289E+05  1.158053E-12 -2.316106E-12
        39  16 -4.028917E+05 -2.782421E+05 -1.362268E+05  1.576015E+05  0.000000E+00  6.617445E-13
        39  17 -3.824502E+05 -2.766294E+05 -1.318159E+05  1.442529E+05  1.323489E-12 -3.308722E-12
        39  18 -3.643315E+05 -2.778628E+05 -1.284389E+05  1.293528E+05  9.926167E-13  1.571643E-12
        39  19 -4.011776E+05 -2.720870E+05 -1.346529E+05  1.521281E+05  6.617445E-13  1.058791E-11
        39  20 -3.823453E+05 -2.751078E+05 -1.314906E+05  1.415339E+05  9.926167E-13 -1.654361E-12
        39  21 -3.649730E+05 -2.803701E+05 -1.290686E+05  1.296960E+05 -1.158053E-12 -5.293956E-12
        39  22 -4.019788E+05 -2.757260E+05 -1.355410E+05  1.546688E+05  2.646978E-12  1.058791E-11
        39  23 -3.823299E+05 -2.764367E+05 -1.317533E+05  1.425455E+05  2.646978E-12  5.293956E-12
        39  24 -3.646115E+05 -2.797169E+05 -1.288657E+05  1.290289E+05  1.985233E-12  5.624828E-12
        39  25 -4.028917E+05 -2.782421E+05 -1.362268E+05  1.576015E+05 -5.293956E-12  0.000000E+00
        39  26 -3.824502E+05 -2.766294E+05 -1.318159E+05  1.442529E+05 -2.646978E-12  1.058791E-11
        39  27 -3.643315E+05 -2.778628E+05 -1.284389E+05  1.293528E+05 -1.985233E-12  9.264423E-12
        40   1 -4.510222E+05 -2.587476E+05 -1.419540E+05  1.737870E+05  9.264423E-12  1.985233E-12
        40   2 -4.321909E+05 -2.634678E+05 -1.391317E+05  1.659237E+05  5.624828E-12 -3.308722E-13
        40   3 -4.129006E+05 -2.689822E+05 -1.363766E+05  1.577986E+05 -3.308722E-13  1.985233E-12
        40   4 -4.545022E+05 -2.645661E+05 -1.438137E+05  1.796344E+05  5.293956E-12 -1.058791E-11
        40   5 -4.338109E+05 -2.678970E+05 -1.403416E+05  1.707559E+05 -1.323489E-11  6.617445E-12
        40   6 -4.138202E+05 -2.730113E+05 -1.373663E+05  1.610681E+05 -9.926167E-12 -1.058791E-11
        40   7 -4.585411E+05 -2.715221E+05 -1.460126E+05  1.859152E+05  5.293956E-12  5.293956E-12
        40   8 -4.362542E+05 -2.730047E+05 -1.418518E+05  1.762122E+05  7.940934E-12 -1.323489E-11
        40   9 -4.155781E+05 -2.771324E+05 -1.385421E+05  1.652308E+05  1.985233E-12 -6.617445E-13
        40  10 -4.510222E+05 -2.587476E+05 -1.419540E+05  1.737870E+05  1.985233E-12 -6.617445E-13
        40  11 -4.321909E+05 -2.634678E+05 -1.391317E+05  1.659237E+05  1.323489E-12  6.617445E-13
        40  12 -4.129006E+05 -2.689822E+05 -1.363766E+05  1.577986E+05  0.000000E+00  4.963084E-13
        40  13 -4.545022E+05 -2.645661E+05 -1.438137E+05  1.796344E+05 -3.970467E-12  0.000000E+00
        40  14 -4.338109E+05 -2.678970E+05 -1.403416E+05  1.707559E+05 -1.323489E-12  1.323489E-12
        40  15 -4.138202E+05 -2.730113E+05 -1.373663E+05  1.610681E+05  1.488925E-12 -1.158053E-12
        40  16 -4.585411E+05 -2.715221E+05 -1.460126E+05  1.859152E+05  6.617445E-13  6.617445E-13
        40  17 -4.362542E+05 -2.730047E+05 -1.418518E+05  1.762122E+05 -3.308722E-13  9.926167E-13
        40  18 -4.155781E+05 -2.771324E+05 -1.385421E+05  1.652308E+05 -1.323489E-12 -2.481542E-13
        40  19 -4.510222E+05 -2.587476E+05 -1.419540E+05  1.737870E+05 -9.264423E-12 -1.985233E-12
        40  20 -4.321909E+05 -2.634678E+05 -1.391317E+05  1.659237E+05 -1.091878E-11  1.091878E-11
        40  21 -4.129006E+05 -2.689822E+05 -1.363766E+05  1.577986E+05  3.308722E-13 -7.279189E-12
        40  22 -4.545022E+05 -2.645661E+05 -1.438137E+05  1.796344E+05 -1.058791E-11  1.058791E-11
        40  23 -4.338109E+05 -2.678970E+05 -1.403416E+05  1.707559E+05  2.646978E-12 -6.617445E-12
        40  24 -4.138202E+05 -2.730113E+05 -1.373663E+05  1.610681E+05 -1.124966E-11  1.058791E-11
        40  25 -4.585411E+05 -2.715221E+05 -1.460126E+05  1.859152E+05  0.000000E+00 -1.058791E-11
        40  26 -4.362542E+05 -2.730047E+05 -1.418518E+05  1.762122E+05 -7.940934E-12  7.940934E-12
        40  27 -4.155781E+05 -2.771324E+05 -1.385421E+05  1.652308E+05  3.308722E-12  6.617445E-13
        41   1 -3.068838E+05 -1.424325E+05 -8.986326E+04  8.171246E+04  9.264423E-12 -3.705769E-11
        41   2 -3.125437E+05 -1.630132E+05 -9.511136E+04  8.771180E+04  2.051408E-11 -1.455838E-11
        41   3 -3.161510E+05 -1.825539E+05 -9.974097E+04  9.246531E+04  2.646978E-12 -4.532950E-11
        41   4 -2.846524E+05 -1.515878E+05 -8.724803E+04  6.848155E+04  1.323489E-11 -3.176374E-11
        41   5 -2.919575E+05 -1.697074E+05 -9.233297E+04  7.300736E+04 -5.293956E-12  5.293956E-12
        41   6 -2.971061E+05 -1.863534E+05 -9.669189E+04  7.587626E+04  1.885972E-11 -1.455838E-11
        41   7 -2.709443E+05 -1.623662E+05 -8.666210E+04  5.530104E+04  2.117582E-11 -2.117582E-11
        41   8 -2.808979E+05 -1.782474E+05 -9.182904E+04  5.854043E+04  2.646978E-12  1.058791E-11
        41   9 -2.888458E+05 -1.923099E+05 -9.623113E+04  5.978984E+04 -8.602678E-12  0.000000E+00
        41  10 -3.068838E+05 -1.424325E+05 -8.986326E+04  8.171246E+04  1.323489E-12 -2.646978E-12
        41  11 -3.125437E+05 -1.630132E+05 -9.511136E+04  8.771180E+04  0.000000E+00 -1.323489E-12
        41  12 -3.161510E+05 -1.825539E+05 -9.974097E+04  9.246531E+04  0.000000E+00 -3.308722E-13
        41  13 -2.846524E+05 -1.515878E+05 -8.724803E+04  6.848155E+04  0.000000E+00 -5.293956E-12
        41  14 -2.919575E+05 -1.697074E+05 -9.233297E+04  7.300736E+04  2.646978E-12 -5.293956E-12
        41  15 -2.971061E+05 -1.863534E+05 -9.669189E+04  7.587626E+04 -3.639595E-12  2.646978E-12
        41  16 -2.709443E+05 -1.623662E+05 -8.666210E+04  5.530104E+04  0.000000E+00  0.000000E+00
        41  17 -2.808979E+05 -1.782474E+05 -9.182904E+04  5.854043E+04  0.000000E+00 -6.617445E-12
        41  18 -2.888458E+05 -1.923099E+05 -9.623113E+04  5.978984E+04 -8.271806E-13 -4.632211E-12
        41  19 -3.068838E+05 -1.424325E+05 -8.986326E+04  8.171246E+04 -9.264423E-12  1.588187E-11
        41  20 -3.125437E+05 -1.630132E+05 -9.511136E+04  8.771180E+04 -2.051408E-11  1.455838E-11
        41  21 -3.161510E+05 -1.825539E+05 -9.974097E+04  9.246531E+04 -2.646978E-12  2.977850E-12
        41  22 -2.846524E+05 -1.515878E+05 -8.724803E+04  6.848155E+04 -1.323489E-11  1.058791E-11
        41  23 -2.919575E+05 -1.697074E+05 -9.233297E+04  7.300736E+04  5.293956E-12  1.588187E-11
        41  24 -2.971061E+05 -1.863534E+05 -9.669189E+04  7.587626E+04 -8.271806E-12  1.455838E-11
        41  25 -2.709443E+05 -1.623662E+05 -8.666210E+04  5.530104E+04 -1.058791E-11 -2.117582E-11
        41  26 -2.808979E+05 -1.782474E+05 -9.182904E+04  5.854043E+04 -2.382280E-11 -1.058791E-11
        41  27 -2.888458E+05 -1.923099E+05 -9.623113E+04  5.978984E+04 -1.985233E-12 -4.235165E-11
        42   1 -3.160187E+05 -1.929521E+05 -1.017942E+05  9.211186E+04  2.051408E-11 -1.455838E-11
        42   2 -3.147637E+05 -2.092169E+05 -1.047961E+05  8.773269E+04 -1.654361E-12 -2.249931E-11
        42   3 -3.109430E+05 -2.236785E+05 -1.069243E+05  8.174405E+04  7.113753E-12 -3.159830E-11
        42   4 -3.008640E+05 -1.960259E+05 -9.937796E+04  7.545454E+04  7.940934E-12  0.000000E+00
        42   5 -3.014217E+05 -2.112913E+05 -1.025426E+05  7.167549E+04  1.323489E-12  5.293956E-12
        42   6 -3.000841E+05 -2.247348E+05 -1.049638E+05  6.644676E+04  8.933551E-12 -2.779327E-11
        42   7 -2.899245E+05 -2.000025E+05 -9.798540E+04  5.895615E+04  1.058791E-11  2.117582E-11
        42   8 -2.921356E+05 -2.142665E+05 -1.012804E+05  5.592578E+04  5.293956E-12 -1.058791E-11
        42   9 -2.929877E+05 -2.266912E+05 -1.039358E+05  5.164083E+04  5.955700E-12  3.970467E-12
        42  10 -3.160187E+05 -1.929521E+05 -1.017942E+05  9.211186E+04 -6.617445E-13  2.646978E-12
        42  11 -3.147637E+05 -2.092169E+05 -1.047961E+05  8.773269E+04  6.617445E-13  2.646978E-12
        42  12 -3.109430E+05 -2.236785E+05 -1.069243E+05  8.174405E+04  3.308722E-13  6.617445E-13
        42  13 -3.008640E+05 -1.960259E+05 -9.937796E+04  7.545454E+04  0.000000E+00  0.000000E+00
        42  14 -3.014217E+05 -2.112913E+05 -1.025426E+05  7.167549E+04  1.323489E-12  0.000000E+00
        42  15 -3.000841E+05 -2.247348E+05 -1.049638E+05  6.644676E+04  3.308722E-12  5.293956E-12
        42  16 -2.899245E+05 -2.000025E+05 -9.798540E+04  5.895615E+04  6.617445E-13 -2.646978E-12
        42  17 -2.921356E+05 -2.142665E+05 -1.012804E+05  5.592578E+04 -1.323489E-12  0.000000E+00
        42  18 -2.929877E+05 -2.266912E+05 -1.039358E+05  5.164083E+04  5.790264E-13  1.985233E-12
        42  19 -3.160187E+05 -1.929521E+05 -1.017942E+05  9.211186E+04 -9.926167E-12  1.455838E-11
        42  20 -3.147637E+05 -2.092169E+05 -1.047961E+05  8.773269E+04  1.654361E-12  2.249931E-11
        42  21 -3.109430E+05 -2.236785E+05 -1.069243E+05  8.174405E+04 -1.240771E-11 -1.075335E-11
        42  22 -3.008640E+05 -1.960259E+05 -9.937796E+04  7.545454E+04 -7.940934E-12  2.117582E-11
        42  23 -3.014217E+05 -2.112913E+05 -1.025426E+05  7.167549E+04  3.970467E-12  1.588187E-11
        42  24 -3.000841E+05 -2.247348E+05 -1.049638E+05  6.644676E+04 -8.933551E-12  2.779327E-11
        42  25 -2.899245E+05 -2.000025E+05 -9.798540E+04  5.895615E+04 -1.058791E-11 -4.235165E-11
        42  26 -2.921356E+05 -2.142665E+05 -1.012804E+05  5.592578E+04  0.000000E+00  3.176374E-11
        42  27 -2.929877E+05 -2.266912E+05 -1.039358E+05  5.164083E+04 -5.955700E-12  1.720536E-11
        43   1 -2.859945E+05 -2.019011E+05 -9.757912E+04  4.894362E+04  1.786710E-11 -6.617445E-12
        43   2 -2.871797E+05 -2.147228E+05 -1.003805E+05  4.524060E+04 -2.316106E-12 -2.249931E-11
        43   3 -2.886297E+05 -2.271513E+05 -1.031562E+05  4.203026E+04  6.038418E-12  8.271806E-13
        43   4 -2.802828E+05 -2.020408E+05 -9.646471E+04  2.775200E+04 -5.293956E-12 -2.117582E-11
        43   5 -2.803914E+05 -2.147518E+05 -9.902863E+04  2.547113E+04 -1.323489E-12 -1.058791E-11
        43   6 -2.807491E+05 -2.273283E+05 -1.016155E+05  2.392841E+04  4.632211E-12  2.382280E-11
        43   7 -2.775941E+05 -2.029081E+05 -9.610044E+04  6.463444E+03  2.646978E-12  2.117582E-11
        43   8 -2.762932E+05 -2.154514E+05 -9.834892E+04  5.610188E+03  1.058791E-11 -5.293956E-11
        43   9 -2.751228E+05 -2.280753E+05 -1.006396E+05  5.717832E+03  5.293956E-12  4.367514E-11
        43  10 -2.859945E+05 -2.019011E+05 -9.757912E+04  4.894362E+04  0.000000E+00  2.646978E-12
        43  11 -2.871797E+05 -2.147228E+05 -1.003805E+05  4.524060E+04  1.323489E-12 -5.293956E-12
        43  12 -2.886297E+05 -2.271513E+05 -1.031562E+05  4.203026E+04  9.098987E-13  3.308722E-13
        43  13 -2.802828E+05 -2.020408E+05 -9.646471E+04  2.775200E+04  1.323489E-12  0.000000E+00
        43  14 -2.803914E+05 -2.147518E+05 -9.902863E+04  2.547113E+04  0.000000E+00 -2.646978E-12
        43  15 -2.807491E+05 -2.273283E+05 -1.016155E+05  2.392841E+04  1.323489E-12 -3.308722E-12
        43  16 -2.775941E+05 -2.029081E+05 -9.610044E+04  6.463444E+03  6.617445E-13  2.646978E-12
        43  17 -2.762932E+05 -2.154514E+05 -9.834892E+04  5.610188E+03 -3.308722E-13 -3.970467E-12
        43  18 -2.751228E+05 -2.280753E+05 -1.006396E+05  5.717832E+03  5.790264E-13 -5.624828E-12
        43  19 -2.859945E+05 -2.019011E+05 -9.757912E+04  4.894362E+04 -1.257315E-11 -1.455838E-11
        43  20 -2.871797E+05 -2.147228E+05 -1.003805E+05  4.524060E+04 -1.356576E-11  1.323489E-12
        43  21 -2.886297E+05 -2.271513E+05 -1.031562E+05  4.203026E+04 -6.038418E-12 -8.271806E-13
        43  22 -2.802828E+05 -2.020408E+05 -9.646471E+04  2.775200E+04 -1.588187E-11  2.117582E-11
        43  23 -2.803914E+05 -2.147518E+05 -9.902863E+04  2.547113E+04  1.323489E-12 -1.058791E-11
        43  24 -2.807491E+05 -2.273283E+05 -1.016155E+05  2.392841E+04 -4.632211E-12 -2.646978E-12
        43  25 -2.775941E+05 -2.029081E+05 -9.610044E+04  6.463444E+03 -2.646978E-12  0.000000E+00
        43  26 -2.762932E+05 -2.154514E+05 -9.834892E+04  5.610188E+03 -5.293956E-12  1.058791E-11
        43  27 -2.751228E+05 -2.280753E+05 -1.006396E+05  5.717832E+03 -5.293956E-12 -1.323489E-12
        44   1 -2.650355E+05 -1.661248E+05 -8.623205E+04  4.447721E+04 -1.985233E-12 -4.764560E-11
        44   2 -2.745557E+05 -1.803739E+05 -9.098592E+04  4.662585E+04  3.970467E-12  3.441071E-11
        44   3 -2.844168E+05 -1.943986E+05 -9.576307E+04  4.933369E+04 -1.596459E-11 -1.389663E-11
        44   4 -2.624214E+05 -1.681158E+05 -8.610745E+04  2.508076E+04  5.293956E-12 -1.058791E-11
        44   5 -2.697979E+05 -1.813176E+05 -9.022310E+04  2.651988E+04 -7.940934E-12  1.058791E-11
        44   6 -2.772014E+05 -1.943172E+05 -9.430373E+04  2.815180E+04  1.985233E-11 -2.646978E-11
        44   7 -2.674696E+05 -1.718600E+05 -8.786593E+04  5.251566E+03  5.293956E-12 -2.117582E-11
        44   8 -2.736772E+05 -1.842983E+05 -9.159511E+04  5.952599E+03  1.852885E-11 -1.058791E-11
        44   9 -2.798379E+05 -1.966188E+05 -9.529134E+04  6.499571E+03  1.257315E-11 -2.646978E-11
        44  10 -2.650355E+05 -1.661248E+05 -8.623205E+04  4.447721E+04 -6.617445E-13  5.293956E-12
        44  11 -2.745557E+05 -1.803739E+05 -9.098592E+04  4.662585E+04  2.316106E-12  1.323489E-12
        44  12 -2.844168E+05 -1.943986E+05 -9.576307E+04  4.933369E+04  5.790264E-13 -3.308722E-12
        44  13 -2.624214E+05 -1.681158E+05 -8.610745E+04  2.508076E+04 -2.646978E-12  5.293956E-12
        44  14 -2.697979E+05 -1.813176E+05 -9.022310E+04  2.651988E+04  0.000000E+00  2.646978E-12
        44  15 -2.772014E+05 -1.943172E+05 -9.430373E+04  2.815180E+04 -3.308722E-13 -7.940934E-12
        44  16 -2.674696E+05 -1.718600E+05 -8.786593E+04  5.251566E+03 -1.323489E-12  2.646978E-12
        44  17 -2.736772E+05 -1.842983E+05 -9.159511E+04  5.952599E+03 -1.323489E-12 -9.264423E-12
        44  18 -2.798379E+05 -1.966188E+05 -9.529134E+04  6.499571E+03 -5.790264E-13 -3.308722E-13
        44  19 -2.650355E+05 -1.661248E+05 -8.623205E+04  4.447721E+04 -8.602678E-12  5.293956E-12
        44  20 -2.745557E+05 -1.803739E+05 -9.098592E+04  4.662585E+04 -9.264423E-12 -3.441071E-11
        44  21 -2.844168E+05 -1.943986E+05 -9.576307E+04  4.933369E+04 -5.211238E-12  1.389663E-11
        44  22 -2.624214E+05 -1.681158E+05 -8.610745E+04  2.508076E+04  5.293956E-12  3.176374E-11
        44  23 -2.697979E+05 -1.813176E+05 -9.022310E+04  2.651988E+04  2.646978E-12 -3.176374E-11
        44  24 -2.772014E+05 -1.943172E+05 -9.430373E+04  2.815180E+04 -3.970467E-12  2.646978E-11
        44  25 -2.674696E+05 -1.718600E+05 -8.786593E+04  5.251566E+03 -5.293956E-12  2.117582E-11
        44  26 -2.736772E+05 -1.842983E+05 -9.159511E+04  5.952599E+03 -2.646978E-12  3.176374E-11
        44  27 -2.798379E+05 -1.966188E+05 -9.529134E+04  6.499571E+03 -7.279189E-12  2.646978E-11
        45   1 -4.509242E+05 -1.214863E+05 -1.144821E+05  1.945672E+05 -4.342698E-13  3.722313E-13
        45   2 -4.398302E+05 -1.461048E+05 -1.171870E+05  1.883343E+05 -8.271806E-14 -8.271806E-14
        45   3 -4.269383E+05 -1.655117E+05 -1.184900E+05  1.807846E+05  2.812414E-12  1.654361E-13
        45   4 -4.944180E+05 -1.308216E+05 -1.250479E+05  1.831556E+05  8.271806E-14  2.481542E-13
        45   5 -4.822608E+05 -1.493117E+05 -1.263145E+05  1.801956E+05 -3.308722E-13  1.654361E-12
        45   6 -4.683763E+05 -1.615697E+05 -1.259892E+05  1.761184E+05  0.000000E+00 -1.323489E-12
        45   7 -5.337330E+05 -1.390790E+05 -1.345624E+05  1.739167E+05  3.308722E-13  0.000000E+00
        45   8 -5.198292E+05 -1.511171E+05 -1.341893E+05  1.746580E+05  6.617445E-13  6.617445E-13
        45   9 -5.041842E+05 -1.558057E+05 -1.319980E+05  1.745477E+05  2.646978E-12  1.323489E-12
        45  10 -4.509242E+05 -1.214863E+05 -1.144821E+05  1.945672E+05 -1.033976E-14  0.000000E+00
        45  11 -4.398302E+05 -1.461048E+05 -1.171870E+05  1.883343E+05  6.203855E-14 -1.447566E-13
        45  12 -4.269383E+05 -1.655117E+05 -1.184900E+05  1.807846E+05  1.861156E-13 -3.101927E-14
        45  13 -4.944180E+05 -1.308216E+05 -1.250479E+05  1.831556E+05  4.135903E-14  0.000000E+00
        45  14 -4.822608E+05 -1.493117E+05 -1.263145E+05  1.801956E+05  0.000000E+00  1.654361E-13
        45  15 -4.683763E+05 -1.615697E+05 -1.259892E+05  1.761184E+05 -8.271806E-14  8.271806E-14
        45  16 -5.337330E+05 -1.390790E+05 -1.345624E+05  1.739167E+05  0.000000E+00 -8.271806E-14
        45  17 -5.198292E+05 -1.511171E+05 -1.341893E+05  1.746580E+05  0.000000E+00  0.000000E+00
        45  18 -5.041842E+05 -1.558057E+05 -1.319980E+05  1.745477E+05 -1.654361E-13  1.654361E-13
        45  19 -4.509242E+05 -1.214863E+05 -1.144821E+05  1.945672E+05  1.033976E-13 -4.135903E-14
        45  20 -4.398302E+05 -1.461048E+05 -1.171870E+05  1.883343E+05  8.271806E-14  8.271806E-14
        45  21 -4.269383E+05 -1.655117E+05 -1.184900E+05  1.807846E+05 -1.654361E-13 -1.654361E-13
        45  22 -4.944180E+05 -1.308216E+05 -1.250479E+05  1.831556E+05  8.271806E-14 -8.271806E-14
        45  23 -4.822608E+05 -1.493117E+05 -1.263145E+05  1.801956E+05  3.308722E-13 -3.308722E-13
        45  24 -4.683763E+05 -1.615697E+05 -1.259892E+05  1.761184E+05  0.000000E+00  1.323489E-12
        45  25 -5.337330E+05 -1.390790E+05 -1.345624E+05  1.739167E+05 -1.654361E-13  1.654361E-13
        45  26 -5.198292E+05 -1.511171E+05 -1.341893E+05  1.746580E+05 -6.617445E-13  0.000000E+00
        45  27 -5.041842E+05 -1.558057E+05 -1.319980E+05  1.745477E+05 -1.323489E-12 -1.323489E-12
        46   1 -4.249522E+05 -1.733881E+05 -1.196681E+05  1.756981E+05  1.323489E-12 -2.481542E-12
        46   2 -4.225978E+05 -1.820456E+05 -1.209287E+05  1.679304E+05  7.444626E-13 -2.233388E-12
        46   3 -4.221580E+05 -1.904610E+05 -1.225238E+05  1.617079E+05  1.282130E-12  2.626298E-12
        46   4 -4.633950E+05 -1.668513E+05 -1.260493E+05  1.740450E+05  0.000000E+00 -1.323489E-12
        46   5 -4.569426E+05 -1.767210E+05 -1.267327E+05  1.685029E+05 -1.985233E-12  1.323489E-12
        46   6 -4.526265E+05 -1.866870E+05 -1.278627E+05  1.649477E+05  3.060568E-12 -7.858216E-12
        46   7 -4.988315E+05 -1.596575E+05 -1.316978E+05  1.719547E+05  5.293956E-12  0.000000E+00
        46   8 -4.875533E+05 -1.706244E+05 -1.316355E+05  1.686192E+05  5.955700E-12 -7.940934E-12
        46   9 -4.785345E+05 -1.820301E+05 -1.321129E+05  1.677383E+05  8.271806E-13  2.150670E-12
        46  10 -4.249522E+05 -1.733881E+05 -1.196681E+05  1.756981E+05 -1.654361E-13 -1.654361E-13
        46  11 -4.225978E+05 -1.820456E+05 -1.209287E+05  1.679304E+05 -2.481542E-13 -8.271806E-13
        46  12 -4.221580E+05 -1.904610E+05 -1.225238E+05  1.617079E+05 -8.271806E-14  9.098987E-13
        46  13 -4.633950E+05 -1.668513E+05 -1.260493E+05  1.740450E+05  0.000000E+00  0.000000E+00
        46  14 -4.569426E+05 -1.767210E+05 -1.267327E+05  1.685029E+05  1.158053E-12  1.654361E-13
        46  15 -4.526265E+05 -1.866870E+05 -1.278627E+05  1.649477E+05  7.858216E-13  0.000000E+00
        46  16 -4.988315E+05 -1.596575E+05 -1.316978E+05  1.719547E+05 -1.654361E-13 -6.617445E-13
        46  17 -4.875533E+05 -1.706244E+05 -1.316355E+05  1.686192E+05  9.098987E-13 -3.308722E-13
        46  18 -4.785345E+05 -1.820301E+05 -1.321129E+05  1.677383E+05 -2.067952E-14 -6.203855E-14
        46  19 -4.249522E+05 -1.733881E+05 -1.196681E+05  1.756981E+05  0.000000E+00 -1.654361E-13
        46  20 -4.225978E+05 -1.820456E+05 -1.209287E+05  1.679304E+05 -3.391441E-12 -4.135903E-13
        46  21 -4.221580E+05 -1.904610E+05 -1.225238E+05  1.617079E+05  1.364848E-12 -2.626298E-12
        46  22 -4.633950E+05 -1.668513E+05 -1.260493E+05  1.740450E+05 -1.323489E-12  1.323489E-12
        46  23 -4.569426E+05 -1.767210E+05 -1.267327E+05  1.685029E+05 -6.617445E-13 -1.323489E-12
        46  24 -4.526265E+05 -1.866870E+05 -1.278627E+05  1.649477E+05 -3.060568E-12  5.211238E-12
        46  25 -4.988315E+05 -1.596575E+05 -1.316978E+05  1.719547E+05 -2.646978E-12 -2.646978E-12
        46  26 -4.875533E+05 -1.706244E+05 -1.316355E+05  1.686192E+05 -5.955700E-12  5.293956E-12
        46  27 -4.785345E+05 -1.820301E+05 -1.321129E+05  1.677383E+05 -8.271806E-13 -2.150670E-12
        47   1 -5.178688E+05 -1.619464E+05 -1.359630E+05  1.714938E+05  1.158053E-12  2.481542E-12
        47   2 -5.048682E+05 -1.700668E+05 -1.349870E+05  1.697519E+05 -2.812414E-12 -1.075335E-12
        47   3 -4.924648E+05 -1.797209E+05 -1.344371E+05  1.684574E+05 -8.065011E-13  3.153626E-12
        47   4 -5.448111E+05 -1.607142E+05 -1.411051E+05  1.709676E+05  0.000000E+00 -6.617445E-13
        47   5 -5.302916E+05 -1.686140E+05 -1.397811E+05  1.699001E+05 -9.926167E-13  6.617445E-13
        47   6 -5.164801E+05 -1.781621E+05 -1.389284E+05  1.694631E+05  2.150670E-12 -2.481542E-12
        47   7 -5.692246E+05 -1.588359E+05 -1.456121E+05  1.705873E+05  1.323489E-12 -6.617445E-13
        47   8 -5.527257E+05 -1.664002E+05 -1.438252E+05  1.702188E+05  3.308722E-12  1.985233E-12
        47   9 -5.369755E+05 -1.757162E+05 -1.425383E+05  1.706812E+05  0.000000E+00 -4.135903E-13
        47  10 -5.178688E+05 -1.619464E+05 -1.359630E+05  1.714938E+05  0.000000E+00  0.000000E+00
        47  11 -5.048682E+05 -1.700668E+05 -1.349870E+05  1.697519E+05  1.654361E-13 -4.963084E-13
        47  12 -4.924648E+05 -1.797209E+05 -1.344371E+05  1.684574E+05  2.274747E-13 -2.481542E-13
        47  13 -5.448111E+05 -1.607142E+05 -1.411051E+05  1.709676E+05  3.308722E-13  0.000000E+00
        47  14 -5.302916E+05 -1.686140E+05 -1.397811E+05  1.699001E+05 -8.271806E-13  3.308722E-13
        47  15 -5.164801E+05 -1.781621E+05 -1.389284E+05  1.694631E+05  1.240771E-13 -9.512577E-13
        47  16 -5.692246E+05 -1.588359E+05 -1.456121E+05  1.705873E+05  3.308722E-13  0.000000E+00
        47  17 -5.527257E+05 -1.664002E+05 -1.438252E+05  1.702188E+05 -2.481542E-13  4.135903E-13
        47  18 -5.369755E+05 -1.757162E+05 -1.425383E+05  1.706812E+05  9.719372E-13 -1.447566E-13
        47  19 -5.178688E+05 -1.619464E+05 -1.359630E+05  1.714938E+05 -1.158053E-12  1.654361E-13
        47  20 -5.048682E+05 -1.700668E+05 -1.349870E+05  1.697519E+05 -2.481542E-12 -1.571643E-12
        47  21 -4.924648E+05 -1.797209E+05 -1.344371E+05  1.684574E+05  8.065011E-13 -5.066481E-13
        47  22 -5.448111E+05 -1.607142E+05 -1.411051E+05  1.709676E+05  0.000000E+00  6.617445E-13
        47  23 -5.302916E+05 -1.686140E+05 -1.397811E+05  1.699001E+05  9.926167E-13 -6.617445E-13
        47  24 -5.164801E+05 -1.781621E+05 -1.389284E+05  1.694631E+05  4.963084E-13 -1.654361E-13
        47  25 -5.692246E+05 -1.588359E+05 -1.456121E+05  1.705873E+05 -2.646978E-12  6.617445E-13
        47  26 -5.527257E+05 -1.664002E+05 -1.438252E+05  1.702188E+05 -3.308722E-12  6.617445E-13
        47  27 -5.369755E+05 -1.757162E+05 -1.425383E+05  1.706812E+05  2.646978E-12  4.135903E-13
        48   1 -5.539093E+05 -1.410404E+05 -1.389900E+05  1.702485E+05  2.481542E-13  1.240771E-13
        48   2 -5.384690E+05 -1.472685E+05 -1.371475E+05  1.718303E+05  7.444626E-13 -8.271806E-13
        48   3 -5.233948E+05 -1.558696E+05 -1.358529E+05  1.734020E+05  1.158053E-12  3.308722E-13
        48   4 -5.861241E+05 -1.482987E+05 -1.468846E+05  1.670008E+05  1.654361E-13  2.481542E-13
        48   5 -5.699780E+05 -1.514627E+05 -1.442881E+05  1.690435E+05  0.000000E+00  3.308722E-13
        48   6 -5.543384E+05 -1.567672E+05 -1.422211E+05  1.712347E+05  1.323489E-12  6.617445E-13
        48   7 -6.140393E+05 -1.544628E+05 -1.537004E+05  1.650171E+05  1.654361E-13  0.000000E+00
        48   8 -5.964952E+05 -1.543094E+05 -1.501609E+05  1.676753E+05  1.323489E-12  0.000000E+00
        48   9 -5.795102E+05 -1.560155E+05 -1.471051E+05  1.706713E+05  2.646978E-12  0.000000E+00
        48  10 -5.539093E+05 -1.410404E+05 -1.389900E+05  1.702485E+05  6.203855E-14 -5.169879E-14
        48  11 -5.384690E+05 -1.472685E+05 -1.371475E+05  1.718303E+05 -8.271806E-14  2.067952E-14
        48  12 -5.233948E+05 -1.558696E+05 -1.358529E+05  1.734020E+05 -6.203855E-14  7.237830E-14
        48  13 -5.861241E+05 -1.482987E+05 -1.468846E+05  1.670008E+05 -8.271806E-14  8.271806E-14
        48  14 -5.699780E+05 -1.514627E+05 -1.442881E+05  1.690435E+05  1.654361E-13  1.654361E-13
        48  15 -5.543384E+05 -1.567672E+05 -1.422211E+05  1.712347E+05 -8.271806E-14 -4.549493E-13
        48  16 -6.140393E+05 -1.544628E+05 -1.537004E+05  1.650171E+05  0.000000E+00  8.271806E-14
        48  17 -5.964952E+05 -1.543094E+05 -1.501609E+05  1.676753E+05  1.654361E-13  0.000000E+00
        48  18 -5.795102E+05 -1.560155E+05 -1.471051E+05  1.706713E+05  0.000000E+00 -8.271806E-14
        48  19 -5.539093E+05 -1.410404E+05 -1.389900E+05  1.702485E+05  8.271806E-14 -1.240771E-13
        48  20 -5.384690E+05 -1.472685E+05 -1.371475E+05  1.718303E+05 -7.444626E-13  1.654361E-13
        48  21 -5.233948E+05 -1.558696E+05 -1.358529E+05  1.734020E+05 -2.481542E-12 -3.308722E-13
        48  22 -5.861241E+05 -1.482987E+05 -1.468846E+05  1.670008E+05  4.963084E-13 -8.271806E-14
        48  23 -5.699780E+05 -1.514627E+05 -1.442881E+05  1.690435E+05 -6.617445E-13  3.308722E-13
        48  24 -5.543384E+05 -1.567672E+05 -1.422211E+05  1.712347E+05  0.000000E+00 -6.617445E-13
        48  25 -6.140393E+05 -1.544628E+05 -1.537004E+05  1.650171E+05  0.000000E+00  0.000000E+00
        48  26 -5.964952E+05 -1.543094E+05 -1.501609E+05  1.676753E+05 -1.323489E-12  6.617445E-13
        48  27 -5.795102E+05 -1.560155E+05 -1.471051E+05  1.706713E+05 -2.646978E-12  0.000000E+00
        49   1 -1.459045E+05 -1.209171E+05 -5.336432E+04 -5.196131E+03  1.257315E-11 -2.117582E-11
        49   2 -1.406112E+05 -1.111107E+05 -5.034438E+04 -3.974440E+03 -3.639595E-12 -1.455838E-11
        49   3 -1.358634E+05 -1.035089E+05 -4.787447E+04 -2.589836E+03 -2.481542E-11 -2.812414E-11
        49   4 -1.487655E+05 -1.158828E+05 -5.292966E+04 -2.676456E+03  1.323489E-11  2.117582E-11
        49   5 -1.434157E+05 -1.099113E+05 -5.066540E+04 -2.603990E+03 -5.293956E-12 -5.293956E-11
        49   6 -1.385847E+05 -1.061666E+05 -4.895027E+04 -2.467337E+03  6.286573E-12 -1.588187E-11
        49   7 -1.519352E+05 -1.129436E+05 -5.297576E+04 -1.469115E+03 -2.117582E-11 -2.117582E-11
        49   8 -1.465884E+05 -1.106238E+05 -5.144243E+04 -2.526812E+03 -2.117582E-11  2.117582E-11
        49   9 -1.417439E+05 -1.105292E+05 -5.045462E+04 -3.604238E+03  2.382280E-11 -4.764560E-11
        49  10 -1.459045E+05 -1.209171E+05 -5.336432E+04 -5.196131E+03  6.617445E-13 -5.293956E-12
        49  11 -1.406112E+05 -1.111107E+05 -5.034438E+04 -3.974440E+03  6.617445E-13 -5.293956E-12
        49  12 -1.358634E+05 -1.035089E+05 -4.787447E+04 -2.589836E+03  4.963084E-13  0.000000E+00
        49  13 -1.487655E+05 -1.158828E+05 -5.292966E+04 -2.676456E+03  0.000000E+00  1.058791E-11
        49  14 -1.434157E+05 -1.099113E+05 -5.066540E+04 -2.603990E+03 -3.970467E-12  0.000000E+00
        49  15 -1.385847E+05 -1.061666E+05 -4.895027E+04 -2.467337E+03  0.000000E+00  5.293956E-12
        49  16 -1.519352E+05 -1.129436E+05 -5.297576E+04 -1.469115E+03  6.617445E-13 -2.646978E-12
        49  17 -1.465884E+05 -1.106238E+05 -5.144243E+04 -2.526812E+03 -2.646978E-12 -2.646978E-12
        49  18 -1.417439E+05 -1.105292E+05 -5.045462E+04 -3.604238E+03  1.654361E-13  0.000000E+00
        49  19 -1.459045E+05 -1.209171E+05 -5.336432E+04 -5.196131E+03 -1.985233E-12  4.235165E-11
        49  20 -1.406112E+05 -1.111107E+05 -5.034438E+04 -3.974440E+03 -1.654361E-12  1.455838E-11
        49  21 -1.358634E+05 -1.035089E+05 -4.787447E+04 -2.589836E+03 -1.224227E-11  6.948317E-12
        49  22 -1.487655E+05 -1.158828E+05 -5.292966E+04 -2.676456E+03 -1.323489E-11  0.000000E+00
        49  23 -1.434157E+05 -1.099113E+05 -5.066540E+04 -2.603990E+03  5.293956E-12  1.058791E-11
        49  24 -1.385847E+05 -1.061666E+05 -4.895027E+04 -2.467337E+03  9.595295E-12  1.588187E-11
        49  25 -1.519352E+05 -1.129436E+05 -5.297576E+04 -1.469115E+03 -1.058791E-11  2.117582E-11
        49  26 -1.465884E+05 -1.106238E+05 -5.144243E+04 -2.526812E+03 -1.058791E-11 -4.235165E-11
        49  27 -1.417439E+05 -1.105292E+05 -5.045462E+04 -3.604238E+03 -1.323489E-11  4.764560E-11
        50   1 -1.316435E+05 -1.004044E+05 -4.640958E+04 -1.250146E+03  0.000000E+00 -1.323489E-11
        50   2 -1.264990E+05 -9.936730E+04 -4.517326E+04 -2.286905E+02 -1.588187E-11  2.382280E-11
        50   3 -1.219165E+05 -1.005284E+05 -4.448900E+04  3.899183E+02 -5.293956E-12 -4.963084E-12
        50   4 -1.366293E+05 -1.056141E+05 -4.844867E+04 -2.881570E+03  2.646978E-12  1.058791E-11
        50   5 -1.314536E+05 -1.032198E+05 -4.693468E+04 -2.021173E+03 -1.323489E-11  1.058791E-11
        50   6 -1.267704E+05 -1.024984E+05 -4.585377E+04 -1.516211E+03  6.617445E-13 -1.852885E-11
        50   7 -1.394087E+05 -1.092283E+05 -4.972741E+04 -3.294687E+03 -1.058791E-11 -2.117582E-11
        50   8 -1.338724E+05 -1.052691E+05 -4.782830E+04 -2.355564E+03  2.646978E-12 -1.058791E-11
        50   9 -1.287249E+05 -1.025085E+05 -4.624668E+04 -1.699224E+03  2.117582E-11 -2.646978E-11
        50  10 -1.316435E+05 -1.004044E+05 -4.640958E+04 -1.250146E+03 -1.323489E-12 -2.646978E-12
        50  11 -1.264990E+05 -9.936730E+04 -4.517326E+04 -2.286905E+02  6.617445E-13 -1.323489E-12
        50  12 -1.219165E+05 -1.005284E+05 -4.448900E+04  3.899183E+02  6.617445E-13  9.926167E-13
        50  13 -1.366293E+05 -1.056141E+05 -4.844867E+04 -2.881570E+03  2.646978E-12  1.058791E-11
        50  14 -1.314536E+05 -1.032198E+05 -4.693468E+04 -2.021173E+03  1.323489E-12 -1.058791E-11
        50  15 -1.267704E+05 -1.024984E+05 -4.585377E+04 -1.516211E+03  1.985233E-12  9.264423E-12
        50  16 -1.394087E+05 -1.092283E+05 -4.972741E+04 -3.294687E+03 -6.617445E-13  0.000000E+00
        50  17 -1.338724E+05 -1.052691E+05 -4.782830E+04 -2.355564E+03  6.617445E-12 -1.323489E-12
        50  18 -1.287249E+05 -1.025085E+05 -4.624668E+04 -1.699224E+03  7.444626E-13  2.316106E-12
        50  19 -1.316435E+05 -1.004044E+05 -4.640958E+04 -1.250146E+03 -1.058791E-11  3.441071E-11
        50  20 -1.264990E+05 -9.936730E+04 -4.517326E+04 -2.286905E+02  1.588187E-11  1.852885E-11
        50  21 -1.219165E+05 -1.005284E+05 -4.448900E+04  3.899183E+02 -5.293956E-12  2.613891E-11
        50  22 -1.366293E+05 -1.056141E+05 -4.844867E+04 -2.881570E+03 -2.646978E-12  1.058791E-11
        50  23 -1.314536E+05 -1.032198E+05 -4.693468E+04 -2.021173E+03  1.323489E-11 -1.058791E-11
        50  24 -1.267704E+05 -1.024984E+05 -4.585377E+04 -1.516211E+03 -5.955700E-12 -2.646978E-12
        50  25 -1.394087E+05 -1.092283E+05 -4.972741E+04 -3.294687E+03  0.000000E+00  2.117582E-11
        50  26 -1.338724E+05 -1.052691E+05 -4.782830E+04 -2.355564E+03 -1.323489E-11 -1.058791E-11
        50  27 -1.287249E+05 -1.025085E+05 -4.624668E+04 -1.699224E+03  1.058791E-11  2.646978E-11
        51   1 -1.399744E+05 -1.082729E+05 -4.964946E+04 -2.723156E+03  2.117582E-11 -1.852885E-11
        51   2 -1.349611E+05 -1.061648E+05 -4.822518E+04 -2.550831E+03 -2.646978E-12 -4.367514E-11
        51   3 -1.299541E+05 -1.043450E+05 -4.685983E+04 -2.275697E+03 -3.970467E-12  5.856439E-11
        51   4 -1.423982E+05 -1.088668E+05 -5.025300E+04 -2.273631E+03  2.646978E-12  0.000000E+00
        51   5 -1.367941E+05 -1.068800E+05 -4.873483E+04 -2.248222E+03 -2.646978E-12  2.646978E-11
        51   6 -1.312102E+05 -1.051642E+05 -4.727488E+04 -2.177012E+03  9.926167E-12  3.176374E-11
        51   7 -1.449138E+05 -1.095816E+05 -5.089908E+04 -1.917644E+03 -5.293956E-12 -2.117582E-11
        51   8 -1.388363E+05 -1.077229E+05 -4.931182E+04 -2.046848E+03  1.323489E-11 -1.058791E-11
        51   9 -1.328040E+05 -1.061209E+05 -4.778498E+04 -2.180957E+03 -6.617445E-13 -3.176374E-11
        51  10 -1.399744E+05 -1.082729E+05 -4.964946E+04 -2.723156E+03  0.000000E+00  5.293956E-12
        51  11 -1.349611E+05 -1.061648E+05 -4.822518E+04 -2.550831E+03  3.308722E-12  3.970467E-12
        51  12 -1.299541E+05 -1.043450E+05 -4.685983E+04 -2.275697E+03 -1.406207E-12  1.985233E-12
        51  13 -1.423982E+05 -1.088668E+05 -5.025300E+04 -2.273631E+03  0.000000E+00  0.000000E+00
        51  14 -1.367941E+05 -1.068800E+05 -4.873483E+04 -2.248222E+03  7.940934E-12 -1.058791E-11
        51  15 -1.312102E+05 -1.051642E+05 -4.727488E+04 -2.177012E+03 -1.985233E-12 -3.970467E-12
        51  16 -1.449138E+05 -1.095816E+05 -5.089908E+04 -1.917644E+03  2.646978E-12  5.293956E-12
        51  17 -1.388363E+05 -1.077229E+05 -4.931182E+04 -2.046848E+03  6.617445E-13  1.455838E-11
        51  18 -1.328040E+05 -1.061209E+05 -4.778498E+04 -2.180957E+03  7.444626E-13  9.926167E-13
        51  19 -1.399744E+05 -1.082729E+05 -4.964946E+04 -2.723156E+03 -1.058791E-11  1.852885E-11
        51  20 -1.349611E+05 -1.061648E+05 -4.822518E+04 -2.550831E+03  2.646978E-12  1.323489E-12
        51  21 -1.299541E+05 -1.043450E+05 -4.685983E+04 -2.275697E+03  3.970467E-12 -5.856439E-11
        51  22 -1.423982E+05 -1.088668E+05 -5.025300E+04 -2.273631E+03 -1.323489E-11  4.235165E-11
        51  23 -1.367941E+05 -1.068800E+05 -4.873483E+04 -2.248222E+03  2.646978E-12 -5.293956E-12
        51  24 -1.312102E+05 -1.051642E+05 -4.727488E+04 -2.177012E+03  6.617445E-13  3.176374E-11
        51  25 -1.449138E+05 -1.095816E+05 -5.089908E+04 -1.917644E+03 -5.293956E-12 -2.117582E-11
        51  26 -1.388363E+05 -1.077229E+05 -4.931182E+04 -2.046848E+03 -2.646978E-12  1.058791E-11
        51  27 -1.328040E+05 -1.061209E+05 -4.778498E+04 -2.180957E+03  6.617445E-13  3.176374E-11
        52   1 -1.528256E+05 -1.104944E+05 -5.266400E+04  6.287942E+02 -8.602678E-12  1.058791E-11
        52   2 -1.481338E+05 -1.112464E+05 -5.187603E+04 -1.245703E+03 -2.646978E-12  5.029258E-11
        52   3 -1.431089E+05 -1.105392E+05 -5.072962E+04 -3.067067E+03  9.264423E-12  3.308722E-12
        52   4 -1.572486E+05 -1.118681E+05 -5.382334E+04 -1.264078E+02  2.646978E-12 -2.117582E-11
        52   5 -1.518306E+05 -1.117939E+05 -5.272491E+04 -1.171197E+03  2.646978E-12 -2.117582E-11
        52   6 -1.461043E+05 -1.103565E+05 -5.129216E+04 -2.132364E+03  2.051408E-11 -6.617445E-12
        52   7 -1.606694E+05 -1.130312E+05 -5.474012E+04 -6.837231E+02  1.058791E-11  2.117582E-11
        52   8 -1.545238E+05 -1.122011E+05 -5.334497E+04 -9.625934E+02  1.323489E-11 -1.058791E-11
        52   9 -1.480918E+05 -1.100998E+05 -5.163832E+04 -1.136992E+03 -6.617445E-12 -1.852885E-11
        52  10 -1.528256E+05 -1.104944E+05 -5.266400E+04  6.287942E+02  3.308722E-12 -5.293956E-12
        52  11 -1.481338E+05 -1.112464E+05 -5.187603E+04 -1.245703E+03  6.617445E-13  7.940934E-12
        52  12 -1.431089E+05 -1.105392E+05 -5.072962E+04 -3.067067E+03 -1.488925E-12  6.617445E-12
        52  13 -1.572486E+05 -1.118681E+05 -5.382334E+04 -1.264078E+02  0.000000E+00  0.000000E+00
        52  14 -1.518306E+05 -1.117939E+05 -5.272491E+04 -1.171197E+03 -1.323489E-12  1.058791E-11
        52  15 -1.461043E+05 -1.103565E+05 -5.129216E+04 -2.132364E+03  6.617445E-13 -1.323489E-12
        52  16 -1.606694E+05 -1.130312E+05 -5.474012E+04 -6.837231E+02  6.617445E-13 -2.646978E-12
        52  17 -1.545238E+05 -1.122011E+05 -5.334497E+04 -9.625934E+02 -1.985233E-12  7.940934E-12
        52  18 -1.480918E+05 -1.100998E+05 -5.163832E+04 -1.136992E+03 -1.819797E-12  1.985233E-12
        52  19 -1.528256E+05 -1.104944E+05 -5.266400E+04  6.287942E+02 -1.985233E-12 -1.058791E-11
        52  20 -1.481338E+05 -1.112464E+05 -5.187603E+04 -1.245703E+03  2.646978E-12  5.558654E-11
        52  21 -1.431089E+05 -1.105392E+05 -5.072962E+04 -3.067067E+03  1.191140E-11  1.786710E-11
        52  22 -1.572486E+05 -1.118681E+05 -5.382334E+04 -1.264078E+02 -2.646978E-12  2.117582E-11
        52  23 -1.518306E+05 -1.117939E+05 -5.272491E+04 -1.171197E+03  7.940934E-12  2.117582E-11
        52  24 -1.461043E+05 -1.103565E+05 -5.129216E+04 -2.132364E+03 -9.926167E-12  2.779327E-11
        52  25 -1.606694E+05 -1.130312E+05 -5.474012E+04 -6.837231E+02  0.000000E+00  0.000000E+00
        52  26 -1.545238E+05 -1.122011E+05 -5.334497E+04 -9.625934E+02 -2.646978E-12  1.058791E-11
        52  27 -1.480918E+05 -1.100998E+05 -5.163832E+04 -1.136992E+03  6.617445E-12  6.088049E-11
        53   1 -5.504422E+05 -2.277391E+05 -1.556363E+05  1.973707E+05  1.985233E-12  2.977850E-12
        53   2 -5.349357E+05 -2.402775E+05 -1.550426E+05  1.996331E+05  2.316106E-12  4.963084E-13
        53   3 -5.201667E+05 -2.509257E+05 -1.542185E+05  2.016452E+05 -2.977850E-12 -1.695720E-12
        53   4 -5.386523E+05 -2.476049E+05 -1.572514E+05  2.130405E+05  5.293956E-12 -5.293956E-12
        53   5 -5.278865E+05 -2.575782E+05 -1.570929E+05  2.150470E+05  0.000000E+00  3.970467E-12
        53   6 -5.180234E+05 -2.655508E+05 -1.567148E+05  2.167564E+05  4.632211E-12 -2.977850E-12
        53   7 -5.314382E+05 -2.734540E+05 -1.609784E+05  2.320477E+05  0.000000E+00  0.000000E+00
        53   8 -5.256506E+05 -2.810133E+05 -1.613328E+05  2.339214E+05  5.293956E-12 -2.646978E-12
        53   9 -5.209437E+05 -2.864633E+05 -1.614814E+05  2.354537E+05  3.970467E-12 -2.977850E-12
        53  10 -5.504422E+05 -2.277391E+05 -1.556363E+05  1.973707E+05  0.000000E+00 -3.308722E-13
        53  11 -5.349357E+05 -2.402775E+05 -1.550426E+05  1.996331E+05 -6.617445E-13 -6.617445E-13
        53  12 -5.201667E+05 -2.509257E+05 -1.542185E+05  2.016452E+05  5.790264E-13  7.858216E-13
        53  13 -5.386523E+05 -2.476049E+05 -1.572514E+05  2.130405E+05 -1.323489E-12 -1.323489E-12
        53  14 -5.278865E+05 -2.575782E+05 -1.570929E+05  2.150470E+05 -6.617445E-13 -1.985233E-12
        53  15 -5.180234E+05 -2.655508E+05 -1.567148E+05  2.167564E+05 -2.316106E-12 -6.617445E-13
        53  16 -5.314382E+05 -2.734540E+05 -1.609784E+05  2.320477E+05  6.617445E-13  0.000000E+00
        53  17 -5.256506E+05 -2.810133E+05 -1.613328E+05  2.339214E+05  2.316106E-12 -6.617445E-13
        53  18 -5.209437E+05 -2.864633E+05 -1.614814E+05  2.354537E+05  8.271806E-13  5.790264E-13
        53  19 -5.504422E+05 -2.277391E+05 -1.556363E+05  1.973707E+05  8.602678E-12 -3.308722E-13
        53  20 -5.349357E+05 -2.402775E+05 -1.550426E+05  1.996331E+05 -2.316106E-12  4.797648E-12
        53  21 -5.201667E+05 -2.509257E+05 -1.542185E+05  2.016452E+05  8.271806E-12 -3.598236E-12
        53  22 -5.386523E+05 -2.476049E+05 -1.572514E+05  2.130405E+05 -5.293956E-12  5.293956E-12
        53  23 -5.278865E+05 -2.575782E+05 -1.570929E+05  2.150470E+05  0.000000E+00  1.323489E-12
        53  24 -5.180234E+05 -2.655508E+05 -1.567148E+05  2.167564E+05 -4.632211E-12  2.977850E-12
        53  25 -5.314382E+05 -2.734540E+05 -1.609784E+05  2.320477E+05 -1.058791E-11  0.000000E+00
        53  26 -5.256506E+05 -2.810133E+05 -1.613328E+05  2.339214E+05 -5.293956E-12 -2.646978E-12
        53  27 -5.209437E+05 -2.864633E+05 -1.614814E+05  2.354537E+05 -9.264423E-12 -2.316106E-12
        54   1 -5.102107E+05 -2.580739E+05 -1.536569E+05  2.015882E+05 -6.617445E-12  6.617445E-12
        54   2 -4.913677E+05 -2.654681E+05 -1.513671E+05  1.989995E+05  2.316106E-12 -8.271806E-12
        54   3 -4.734362E+05 -2.735966E+05 -1.494066E+05  1.958178E+05  5.872982E-12  3.060568E-12
        54   4 -5.106451E+05 -2.709648E+05 -1.563220E+05  2.164942E+05  7.940934E-12 -1.323489E-11
        54   5 -4.951363E+05 -2.745009E+05 -1.539275E+05  2.130998E+05  1.455838E-11 -2.646978E-12
        54   6 -4.806335E+05 -2.788197E+05 -1.518906E+05  2.090564E+05  4.632211E-12 -9.595295E-12
        54   7 -5.149399E+05 -2.883966E+05 -1.606673E+05  2.340952E+05  5.293956E-12 -5.293956E-12
        54   8 -5.028795E+05 -2.880010E+05 -1.581761E+05  2.299121E+05  2.646978E-12 -2.646978E-12
        54   9 -4.919243E+05 -2.884373E+05 -1.560723E+05  2.250220E+05  0.000000E+00 -4.632211E-12
        54  10 -5.102107E+05 -2.580739E+05 -1.536569E+05  2.015882E+05 -6.617445E-13 -6.617445E-13
        54  11 -4.913677E+05 -2.654681E+05 -1.513671E+05  1.989995E+05 -3.308722E-13  0.000000E+00
        54  12 -4.734362E+05 -2.735966E+05 -1.494066E+05  1.958178E+05  1.902515E-12  8.271806E-14
        54  13 -5.106451E+05 -2.709648E+05 -1.563220E+05  2.164942E+05  1.323489E-12  1.323489E-12
        54  14 -4.951363E+05 -2.745009E+05 -1.539275E+05  2.130998E+05  1.985233E-12 -1.985233E-12
        54  15 -4.806335E+05 -2.788197E+05 -1.518906E+05  2.090564E+05  8.271806E-13 -1.323489E-12
        54  16 -5.149399E+05 -2.883966E+05 -1.606673E+05  2.340952E+05  0.000000E+00  0.000000E+00
        54  17 -5.028795E+05 -2.880010E+05 -1.581761E+05  2.299121E+05 -6.617445E-13  3.970467E-12
        54  18 -4.919243E+05 -2.884373E+05 -1.560723E+05  2.250220E+05  8.271806E-13 -4.963084E-13
        54  19 -5.102107E+05 -2.580739E+05 -1.536569E+05  2.015882E+05 -3.970467E-12 -6.617445E-12
        54  20 -4.913677E+05 -2.654681E+05 -1.513671E+05  1.989995E+05 -7.610062E-12 -7.610062E-12
        54  21 -4.734362E+05 -2.735966E+05 -1.494066E+05  1.958178E+05 -5.872982E-12 -3.060568E-12
        54  22 -5.106451E+05 -2.709648E+05 -1.563220E+05  2.164942E+05  2.646978E-12  7.940934E-12
        54  23 -4.951363E+05 -2.745009E+05 -1.539275E+05  2.130998E+05 -3.970467E-12  2.646978E-12
        54  24 -4.806335E+05 -2.788197E+05 -1.518906E+05  2.090564E+05 -9.926167E-12  9.595295E-12
        54  25 -5.149399E+05 -2.883966E+05 -1.606673E+05  2.340952E+05 -5.293956E-12  5.293956E-12
        54  26 -5.028795E+05 -2.880010E+05 -1.581761E+05  2.299121E+05 -2.646978E-12  2.646978E-12
        54  27 -4.919243E+05 -2.884373E+05 -1.560723E+05  2.250220E+05  5.293956E-12 -5.955700E-12
        55   1 -5.189411E+05 -2.978192E+05 -1.633521E+05  2.472118E+05 -1.124966E-11  6.617445E-12
        55   2 -5.095998E+05 -2.928842E+05 -1.604968E+05  2.415924E+05  0.000000E+00 -2.977850E-12
        55   3 -4.998740E+05 -2.907724E+05 -1.581293E+05  2.357433E+05  3.970467E-12 -1.654361E-12
        55   4 -5.342035E+05 -3.036822E+05 -1.675772E+05  2.729139E+05 -2.646978E-12  1.058791E-11
        55   5 -5.276427E+05 -2.934014E+05 -1.642088E+05  2.642103E+05  1.455838E-11  2.646978E-12
        55   6 -5.202432E+05 -2.857613E+05 -1.612009E+05  2.547837E+05  7.610062E-12 -1.191140E-11
        55   7 -5.545511E+05 -3.142535E+05 -1.737609E+05  3.020882E+05  5.293956E-12 -5.293956E-12
        55   8 -5.508975E+05 -2.981999E+05 -1.698195E+05  2.902646E+05  1.323489E-11  0.000000E+00
        55   9 -5.457635E+05 -2.844120E+05 -1.660351E+05  2.770679E+05  9.264423E-12 -8.602678E-12
        55  10 -5.189411E+05 -2.978192E+05 -1.633521E+05  2.472118E+05  6.617445E-13  0.000000E+00
        55  11 -5.095998E+05 -2.928842E+05 -1.604968E+05  2.415924E+05  9.926167E-13 -6.617445E-13
        55  12 -4.998740E+05 -2.907724E+05 -1.581293E+05  2.357433E+05 -1.240771E-12  7.444626E-13
        55  13 -5.342035E+05 -3.036822E+05 -1.675772E+05  2.729139E+05  0.000000E+00  0.000000E+00
        55  14 -5.276427E+05 -2.934014E+05 -1.642088E+05  2.642103E+05  2.646978E-12  5.293956E-12
        55  15 -5.202432E+05 -2.857613E+05 -1.612009E+05  2.547837E+05  0.000000E+00 -8.271806E-13
        55  16 -5.545511E+05 -3.142535E+05 -1.737609E+05  3.020882E+05  0.000000E+00  1.985233E-12
        55  17 -5.508975E+05 -2.981999E+05 -1.698195E+05  2.902646E+05  1.985233E-12 -6.617445E-13
        55  18 -5.457635E+05 -2.844120E+05 -1.660351E+05  2.770679E+05  8.271806E-13 -2.895132E-12
        55  19 -5.189411E+05 -2.978192E+05 -1.633521E+05  2.472118E+05  6.617445E-13 -6.617445E-12
        55  20 -5.095998E+05 -2.928842E+05 -1.604968E+05  2.415924E+05  0.000000E+00 -7.610062E-12
        55  21 -4.998740E+05 -2.907724E+05 -1.581293E+05  2.357433E+05 -9.264423E-12  1.654361E-12
        55  22 -5.342035E+05 -3.036822E+05 -1.675772E+05  2.729139E+05 -7.940934E-12  5.293956E-12
        55  23 -5.276427E+05 -2.934014E+05 -1.642088E+05  2.642103E+05  1.323489E-12 -2.646978E-12
        55  24 -5.202432E+05 -2.857613E+05 -1.612009E+05  2.547837E+05 -7.610062E-12  1.323489E-12
        55  25 -5.545511E+05 -3.142535E+05 -1.737609E+05  3.020882E+05  1.058791E-11 -5.293956E-12
        55  26 -5.508975E+05 -2.981999E+05 -1.698195E+05  2.902646E+05 -2.646978E-12 -1.058791E-11
        55  27 -5.457635E+05 -2.844120E+05 -1.660351E+05  2.770679E+05  1.323489E-12  8.602678E-12
        56   1 -5.293049E+05 -2.907163E+05 -1.640042E+05  2.456128E+05  1.323489E-12  4.632211E-12
        56   2 -5.262317E+05 -2.939234E+05 -1.640310E+05  2.471703E+05  2.316106E-12 -7.279189E-12
        56   3 -5.231287E+05 -2.972207E+05 -1.640699E+05  2.485951E+05  4.135903E-12  1.323489E-12
        56   4 -5.284266E+05 -3.113637E+05 -1.679581E+05  2.775502E+05  7.940934E-12  2.646978E-12
        56   5 -5.315067E+05 -3.086923E+05 -1.680398E+05  2.766884E+05 -2.646978E-12  2.117582E-11
        56   6 -5.344225E+05 -3.055249E+05 -1.679895E+05  2.751244E+05 -8.271806E-12 -1.158053E-11
        56   7 -5.352153E+05 -3.411706E+05 -1.752772E+05  3.150622E+05  0.000000E+00  1.058791E-11
        56   8 -5.451602E+05 -3.328804E+05 -1.756081E+05  3.121955E+05 -7.940934E-12  2.646978E-12
        56   9 -5.545779E+05 -3.231770E+05 -1.755510E+05  3.078450E+05 -9.264423E-12  1.323489E-11
        56  10 -5.293049E+05 -2.907163E+05 -1.640042E+05  2.456128E+05  0.000000E+00  0.000000E+00
        56  11 -5.262317E+05 -2.939234E+05 -1.640310E+05  2.471703E+05 -1.985233E-12 -2.316106E-12
        56  12 -5.231287E+05 -2.972207E+05 -1.640699E+05  2.485951E+05 -2.481542E-13 -8.271806E-13
        56  13 -5.284266E+05 -3.113637E+05 -1.679581E+05  2.775502E+05  1.323489E-12 -1.323489E-12
        56  14 -5.315067E+05 -3.086923E+05 -1.680398E+05  2.766884E+05 -3.308722E-12 -1.323489E-12
        56  15 -5.344225E+05 -3.055249E+05 -1.679895E+05  2.751244E+05  1.158053E-12 -9.926167E-13
        56  16 -5.352153E+05 -3.411706E+05 -1.752772E+05  3.150622E+05  1.323489E-12 -1.323489E-12
        56  17 -5.451602E+05 -3.328804E+05 -1.756081E+05  3.121955E+05  0.000000E+00 -4.963084E-12
        56  18 -5.545779E+05 -3.231770E+05 -1.755510E+05  3.078450E+05  7.444626E-13 -1.654361E-13
        56  19 -5.293049E+05 -2.907163E+05 -1.640042E+05  2.456128E+05 -1.323489E-12 -4.632211E-12
        56  20 -5.262317E+05 -2.939234E+05 -1.640310E+05  2.471703E+05 -2.316106E-12  1.985233E-12
        56  21 -5.231287E+05 -2.972207E+05 -1.640699E+05  2.485951E+05  1.158053E-12 -1.323489E-12
        56  22 -5.284266E+05 -3.113637E+05 -1.679581E+05  2.775502E+05  2.646978E-12 -2.646978E-12
        56  23 -5.315067E+05 -3.086923E+05 -1.680398E+05  2.766884E+05  1.323489E-11  0.000000E+00
        56  24 -5.344225E+05 -3.055249E+05 -1.679895E+05  2.751244E+05  2.977850E-12 -4.301339E-12
        56  25 -5.352153E+05 -3.411706E+05 -1.752772E+05  3.150622E+05  0.000000E+00 -1.058791E-11
        56  26 -5.451602E+05 -3.328804E+05 -1.756081E+05  3.121955E+05 -2.646978E-12  2.646978E-12
        56  27 -5.545779E+05 -3.231770E+05 -1.755510E+05  3.078450E+05  3.970467E-12  2.646978E-12
        57   1 -3.597322E+05 -2.711502E+05 -1.261765E+05  1.276493E+05  7.940934E-12 -3.970467E-12
        57   2 -3.502234E+05 -2.612272E+05 -1.222901E+05  1.192325E+05 -3.308722E-12 -3.176374E-11
        57   3 -3.407868E+05 -2.534399E+05 -1.188454E+05  1.110316E+05  7.940934E-12  2.150670E-12
        57   4 -3.746096E+05 -2.603514E+05 -1.269922E+05  1.400433E+05  1.058791E-11  0.000000E+00
        57   5 -3.631441E+05 -2.489925E+05 -1.224273E+05  1.302749E+05 -7.940934E-12  7.940934E-12
        57   6 -3.517295E+05 -2.397005E+05 -1.182860E+05  1.206893E+05  8.271806E-12  2.646978E-12
        57   7 -3.887477E+05 -2.484849E+05 -1.274465E+05  1.519200E+05  1.058791E-11 -1.058791E-11
        57   8 -3.753602E+05 -2.357064E+05 -1.222133E+05  1.408192E+05  2.646978E-12  0.000000E+00
        57   9 -3.620040E+05 -2.249292E+05 -1.173866E+05  1.298695E+05  6.617445E-13  5.558654E-11
        57  10 -3.597322E+05 -2.711502E+05 -1.261765E+05  1.276493E+05 -2.646978E-12 -1.323489E-12
        57  11 -3.502234E+05 -2.612272E+05 -1.222901E+05  1.192325E+05  2.316106E-12 -1.323489E-12
        57  12 -3.407868E+05 -2.534399E+05 -1.188454E+05  1.110316E+05  5.790264E-13 -6.617445E-13
        57  13 -3.746096E+05 -2.603514E+05 -1.269922E+05  1.400433E+05  0.000000E+00 -5.293956E-12
        57  14 -3.631441E+05 -2.489925E+05 -1.224273E+05  1.302749E+05  1.323489E-12 -1.323489E-12
        57  15 -3.517295E+05 -2.397005E+05 -1.182860E+05  1.206893E+05  1.985233E-12  3.308722E-13
        57  16 -3.887477E+05 -2.484849E+05 -1.274465E+05  1.519200E+05  6.617445E-13  1.323489E-12
        57  17 -3.753602E+05 -2.357064E+05 -1.222133E+05  1.408192E+05  1.654361E-12 -5.293956E-12
        57  18 -3.620040E+05 -2.249292E+05 -1.173866E+05  1.298695E+05  3.474159E-12  1.323489E-12
        57  19 -3.597322E+05 -2.711502E+05 -1.261765E+05  1.276493E+05 -7.940934E-12  3.970467E-12
        57  20 -3.502234E+05 -2.612272E+05 -1.222901E+05  1.192325E+05 -1.985233E-12  0.000000E+00
        57  21 -3.407868E+05 -2.534399E+05 -1.188454E+05  1.110316E+05 -7.940934E-12  8.437242E-12
        57  22 -3.746096E+05 -2.603514E+05 -1.269922E+05  1.400433E+05 -5.293956E-12  0.000000E+00
        57  23 -3.631441E+05 -2.489925E+05 -1.224273E+05  1.302749E+05  1.852885E-11  1.323489E-11
        57  24 -3.517295E+05 -2.397005E+05 -1.182860E+05  1.206893E+05  2.316106E-12  7.940934E-12
        57  25 -3.887477E+05 -2.484849E+05 -1.274465E+05  1.519200E+05 -2.117582E-11  1.058791E-11
        57  26 -3.753602E+05 -2.357064E+05 -1.222133E+05  1.408192E+05 -1.323489E-11  1.058791E-11
        57  27 -3.620040E+05 -2.249292E+05 -1.173866E+05  1.298695E+05 -6.617445E-13 -2.646978E-12
        58   1 -3.354160E+05 -2.476036E+05 -1.166039E+05  1.060866E+05  1.323489E-11 -2.911676E-11
        58   2 -3.261885E+05 -2.350399E+05 -1.122457E+05  9.712167E+04  1.852885E-11 -2.514629E-11
        58   3 -3.170632E+05 -2.258844E+05 -1.085895E+05  8.852725E+04  9.098987E-12  1.654361E-12
        58   4 -3.457671E+05 -2.346117E+05 -1.160758E+05  1.154844E+05  5.293956E-12 -1.588187E-11
        58   5 -3.338619E+05 -2.215668E+05 -1.110857E+05  1.050685E+05 -2.646978E-12  2.646978E-12
        58   6 -3.220344E+05 -2.118883E+05 -1.067845E+05  9.500436E+04 -9.264423E-12 -2.977850E-11
        58   7 -3.534050E+05 -2.176559E+05 -1.142122E+05  1.229793E+05 -5.293956E-12  0.000000E+00
        58   8 -3.388253E+05 -2.040968E+05 -1.085844E+05  1.111090E+05  1.058791E-11  5.293956E-12
        58   9 -3.242995E+05 -1.938627E+05 -1.036324E+05  9.957196E+04  1.985233E-11  1.191140E-11
        58  10 -3.354160E+05 -2.476036E+05 -1.166039E+05  1.060866E+05  0.000000E+00  1.323489E-12
        58  11 -3.261885E+05 -2.350399E+05 -1.122457E+05  9.712167E+04  0.000000E+00 -1.323489E-12
        58  12 -3.170632E+05 -2.258844E+05 -1.085895E+05  8.852725E+04  2.067952E-12  3.639595E-12
        58  13 -3.457671E+05 -2.346117E+05 -1.160758E+05  1.154844E+05  0.000000E+00  5.293956E-12
        58  14 -3.338619E+05 -2.215668E+05 -1.110857E+05  1.050685E+05  2.646978E-12  2.646978E-12
        58  15 -3.220344E+05 -2.118883E+05 -1.067845E+05  9.500436E+04  2.977850E-12 -5.293956E-12
        58  16 -3.534050E+05 -2.176559E+05 -1.142122E+05  1.229793E+05 -1.985233E-12  0.000000E+00
        58  17 -3.388253E+05 -2.040968E+05 -1.085844E+05  1.111090E+05  0.000000E+00  5.955700E-12
        58  18 -3.242995E+05 -1.938627E+05 -1.036324E+05  9.957196E+04 -7.444626E-13  1.819797E-12
        58  19 -3.354160E+05 -2.476036E+05 -1.166039E+05  1.060866E+05 -2.646978E-12  2.911676E-11
        58  20 -3.261885E+05 -2.350399E+05 -1.122457E+05  9.712167E+04 -7.940934E-12  3.970467E-12
        58  21 -3.170632E+05 -2.258844E+05 -1.085895E+05  8.852725E+04  1.488925E-12  8.933551E-12
        58  22 -3.457671E+05 -2.346117E+05 -1.160758E+05  1.154844E+05 -5.293956E-12  5.293956E-12
        58  23 -3.338619E+05 -2.215668E+05 -1.110857E+05  1.050685E+05  1.323489E-11 -2.646978E-12
        58  24 -3.220344E+05 -2.118883E+05 -1.067845E+05  9.500436E+04 -1.191140E-11  8.602678E-12
        58  25 -3.534050E+05 -2.176559E+05 -1.142122E+05  1.229793E+05  1.588187E-11  0.000000E+00
        58  26 -3.388253E+05 -2.040968E+05 -1.085844E+05  1.111090E+05 -2.117582E-11  3.705769E-11
        58  27 -3.242995E+05 -1.938627E+05 -1.036324E+05  9.957196E+04  1.323489E-12  9.264423E-12
        59   1 -3.581779E+05 -2.050912E+05 -1.126538E+05  1.256083E+05  1.588187E-11 -2.646978E-12
        59   2 -3.424865E+05 -1.919753E+05 -1.068924E+05  1.120422E+05  1.124966E-11  1.058791E-11
        59   3 -3.261929E+05 -1.822337E+05 -1.016853E+05  9.934122E+04 -3.805031E-12  3.143286E-11
        59   4 -3.675520E+05 -1.851120E+05 -1.105328E+05  1.243204E+05  0.000000E+00  1.058791E-11
        59   5 -3.471376E+05 -1.730611E+05 -1.040397E+05  1.095853E+05 -2.117582E-11  1.058791E-11
        59   6 -3.258893E+05 -1.644759E+05 -9.807305E+04  9.561781E+04  1.124966E-11 -2.646978E-11
        59   7 -3.715310E+05 -1.586139E+05 -1.060290E+05  1.194537E+05 -1.058791E-11 -1.058791E-11
        59   8 -3.460232E+05 -1.470303E+05 -9.861072E+04  1.032692E+05  5.293956E-12  2.117582E-11
        59   9 -3.195474E+05 -1.391445E+05 -9.173837E+04  8.782705E+04  2.117582E-11 -1.455838E-11
        59  10 -3.581779E+05 -2.050912E+05 -1.126538E+05  1.256083E+05  0.000000E+00 -3.970467E-12
        59  11 -3.424865E+05 -1.919753E+05 -1.068924E+05  1.120422E+05 -6.617445E-13 -1.323489E-12
        59  12 -3.261929E+05 -1.822337E+05 -1.016853E+05  9.934122E+04 -9.926167E-13 -6.452009E-12
        59  13 -3.675520E+05 -1.851120E+05 -1.105328E+05  1.243204E+05  2.646978E-12  0.000000E+00
        59  14 -3.471376E+05 -1.730611E+05 -1.040397E+05  1.095853E+05 -5.293956E-12 -5.293956E-12
        59  15 -3.258893E+05 -1.644759E+05 -9.807305E+04  9.561781E+04 -3.639595E-12 -1.985233E-12
        59  16 -3.715310E+05 -1.586139E+05 -1.060290E+05  1.194537E+05 -2.646978E-12  0.000000E+00
        59  17 -3.460232E+05 -1.470303E+05 -9.861072E+04  1.032692E+05  2.646978E-12  1.323489E-12
        59  18 -3.195474E+05 -1.391445E+05 -9.173837E+04  8.782705E+04 -9.926167E-13 -2.481542E-12
        59  19 -3.581779E+05 -2.050912E+05 -1.126538E+05  1.256083E+05 -5.293956E-12  3.441071E-11
        59  20 -3.424865E+05 -1.919753E+05 -1.068924E+05  1.120422E+05 -1.124966E-11  3.176374E-11
        59  21 -3.261929E+05 -1.822337E+05 -1.016853E+05  9.934122E+04  3.805031E-12 -3.143286E-11
        59  22 -3.675520E+05 -1.851120E+05 -1.105328E+05  1.243204E+05 -1.058791E-11  1.058791E-11
        59  23 -3.471376E+05 -1.730611E+05 -1.040397E+05  1.095853E+05  0.000000E+00 -1.058791E-11
        59  24 -3.258893E+05 -1.644759E+05 -9.807305E+04  9.561781E+04 -1.124966E-11  4.764560E-11
        59  25 -3.715310E+05 -1.586139E+05 -1.060290E+05  1.194537E+05  1.058791E-11  1.058791E-11
        59  26 -3.460232E+05 -1.470303E+05 -9.861072E+04  1.032692E+05 -5.293956E-12 -2.117582E-11
        59  27 -3.195474E+05 -1.391445E+05 -9.173837E+04  8.782705E+04 -2.117582E-11  1.455838E-11
        60   1 -3.977921E+05 -2.384309E+05 -1.272446E+05  1.585861E+05  1.191140E-11  2.646978E-12
        60   2 -3.832031E+05 -2.238366E+05 -1.214080E+05  1.456896E+05  1.323489E-11 -5.293956E-12
        60   3 -3.679518E+05 -2.130457E+05 -1.161995E+05  1.335534E+05  9.264423E-12  8.271806E-13
        60   4 -4.181875E+05 -2.174420E+05 -1.271259E+05  1.638888E+05  0.000000E+00  2.646978E-11
        60   5 -3.992288E+05 -2.031683E+05 -1.204794E+05  1.482240E+05 -2.117582E-11 -1.323489E-11
        60   6 -3.792270E+05 -1.927364E+05 -1.143927E+05  1.330920E+05  9.264423E-12 -8.602678E-12
        60   7 -4.354109E+05 -1.910195E+05 -1.252861E+05  1.668218E+05  1.058791E-11  0.000000E+00
        60   8 -4.116893E+05 -1.763152E+05 -1.176009E+05  1.480956E+05  5.293956E-12 -3.705769E-11
        60   9 -3.865820E+05 -1.655836E+05 -1.104331E+05  1.297069E+05 -1.323489E-12  2.117582E-11
        60  10 -3.977921E+05 -2.384309E+05 -1.272446E+05  1.585861E+05  0.000000E+00  1.323489E-12
        60  11 -3.832031E+05 -2.238366E+05 -1.214080E+05  1.456896E+05  6.617445E-13  3.970467E-12
        60  12 -3.679518E+05 -2.130457E+05 -1.161995E+05  1.335534E+05  2.812414E-12 -3.308722E-13
        60  13 -4.181875E+05 -2.174420E+05 -1.271259E+05  1.638888E+05 -5.293956E-12 -2.646978E-12
        60  14 -3.992288E+05 -2.031683E+05 -1.204794E+05  1.482240E+05 -5.293956E-12 -2.646978E-12
        60  15 -3.792270E+05 -1.927364E+05 -1.143927E+05  1.330920E+05 -3.639595E-12 -1.985233E-12
        60  16 -4.354109E+05 -1.910195E+05 -1.252861E+05  1.668218E+05  1.323489E-12  0.000000E+00
        60  17 -4.116893E+05 -1.763152E+05 -1.176009E+05  1.480956E+05 -1.985233E-12  6.617445E-12
        60  18 -3.865820E+05 -1.655836E+05 -1.104331E+05  1.297069E+05  4.135903E-12  8.271806E-13
        60  19 -3.977921E+05 -2.384309E+05 -1.272446E+05  1.585861E+05 -1.323489E-12 -2.646978E-12
        60  20 -3.832031E+05 -2.238366E+05 -1.214080E+05  1.456896E+05 -1.323489E-11 -5.293956E-12
        60  21 -3.679518E+05 -2.130457E+05 -1.161995E+05  1.335534E+05 -1.985233E-11  2.034864E-11
        60  22 -4.181875E+05 -2.174420E+05 -1.271259E+05  1.638888E+05  1.058791E-11  1.588187E-11
        60  23 -3.992288E+05 -2.031683E+05 -1.204794E+05  1.482240E+05  1.058791E-11  1.323489E-11
        60  24 -3.792270E+05 -1.927364E+05 -1.143927E+05  1.330920E+05 -9.264423E-12 -1.257315E-11
        60  25 -4.354109E+05 -1.910195E+05 -1.252861E+05  1.668218E+05  0.000000E+00  0.000000E+00
        60  26 -4.116893E+05 -1.763152E+05 -1.176009E+05  1.480956E+05 -5.293956E-12  1.588187E-11
        60  27 -3.865820E+05 -1.655836E+05 -1.104331E+05  1.297069E+05  1.323489E-12  2.117582E-11
        61   1 -5.635385E+05 -2.121330E+05 -1.551343E+05  1.896297E+05  4.963084E-12 -3.308722E-12
        61   2 -5.640374E+05 -2.155642E+05 -1.559203E+05  1.903841E+05  2.481542E-13  5.293956E-12
        61   3 -5.587947E+05 -2.179569E+05 -1.553503E+05  1.915290E+05  5.500751E-12  3.122607E-12
        61   4 -5.853804E+05 -1.914356E+05 -1.553632E+05  1.824091E+05 -5.955700E-12 -6.617445E-13
        61   5 -5.837531E+05 -1.941575E+05 -1.555821E+05  1.827763E+05 -3.308722E-12  6.617445E-13
        61   6 -5.767115E+05 -1.957072E+05 -1.544837E+05  1.834420E+05 -9.926167E-13  3.639595E-12
        61   7 -6.085268E+05 -1.756902E+05 -1.568434E+05  1.746858E+05 -1.323489E-12 -1.323489E-12
        61   8 -6.049224E+05 -1.782256E+05 -1.566296E+05  1.746411E+05  6.617445E-13  0.000000E+00
        61   9 -5.961977E+05 -1.795512E+05 -1.551498E+05  1.748149E+05 -2.481542E-12 -2.646978E-12
        61  10 -5.635385E+05 -2.121330E+05 -1.551343E+05  1.896297E+05  3.308722E-13 -3.308722E-13
        61  11 -5.640374E+05 -2.155642E+05 -1.559203E+05  1.903841E+05  1.654361E-13 -3.308722E-13
        61  12 -5.587947E+05 -2.179569E+05 -1.553503E+05  1.915290E+05  2.067952E-13  4.963084E-13
        61  13 -5.853804E+05 -1.914356E+05 -1.553632E+05  1.824091E+05 -1.323489E-12  6.617445E-13
        61  14 -5.837531E+05 -1.941575E+05 -1.555821E+05  1.827763E+05  6.617445E-13  0.000000E+00
        61  15 -5.767115E+05 -1.957072E+05 -1.544837E+05  1.834420E+05  1.985233E-12  1.654361E-13
        61  16 -6.085268E+05 -1.756902E+05 -1.568434E+05  1.746858E+05  3.308722E-13  0.000000E+00
        61  17 -6.049224E+05 -1.782256E+05 -1.566296E+05  1.746411E+05  4.963084E-13  1.654361E-13
        61  18 -5.961977E+05 -1.795512E+05 -1.551498E+05  1.748149E+05  2.481542E-13  8.271806E-14
        61  19 -5.635385E+05 -2.121330E+05 -1.551343E+05  1.896297E+05  3.308722E-13  3.308722E-12
        61  20 -5.640374E+05 -2.155642E+05 -1.559203E+05  1.903841E+05  2.398824E-12 -2.646978E-12
        61  21 -5.587947E+05 -2.179569E+05 -1.553503E+05  1.915290E+05  2.440183E-12 -3.122607E-12
        61  22 -5.853804E+05 -1.914356E+05 -1.553632E+05  1.824091E+05 -1.985233E-12  3.308722E-12
        61  23 -5.837531E+05 -1.941575E+05 -1.555821E+05  1.827763E+05  6.617445E-13 -6.617445E-13
        61  24 -5.767115E+05 -1.957072E+05 -1.544837E+05  1.834420E+05  9.926167E-13  3.308722E-13
        61  25 -6.085268E+05 -1.756902E+05 -1.568434E+05  1.746858E+05  3.970467E-12  1.323489E-12
        61  26 -6.049224E+05 -1.782256E+05 -1.566296E+05  1.746411E+05 -6.617445E-13  0.000000E+00
        61  27 -5.961977E+05 -1.795512E+05 -1.551498E+05  1.748149E+05 -2.812414E-12  0.000000E+00
        62   1 -5.541383E+05 -2.202908E+05 -1.548858E+05  1.911768E+05 -2.977850E-12  5.459392E-12
        62   2 -5.435373E+05 -2.242548E+05 -1.535584E+05  1.891318E+05  9.098987E-13 -2.316106E-12
        62   3 -5.259676E+05 -2.272198E+05 -1.506375E+05  1.872895E+05 -3.288043E-12  4.818327E-12
        62   4 -5.699676E+05 -1.967368E+05 -1.533409E+05  1.833305E+05  6.617445E-13 -1.985233E-12
        62   5 -5.547978E+05 -1.994129E+05 -1.508421E+05  1.813098E+05 -1.323489E-12  4.963084E-12
        62   6 -5.326195E+05 -2.007480E+05 -1.466735E+05  1.794241E+05  1.902515E-12 -1.488925E-12
        62   7 -5.877461E+05 -1.780989E+05 -1.531690E+05  1.738480E+05  0.000000E+00  0.000000E+00
        62   8 -5.684783E+05 -1.800607E+05 -1.497078E+05  1.715420E+05  6.617445E-13  1.985233E-12
        62   9 -5.422514E+05 -1.805075E+05 -1.445518E+05  1.692635E+05  2.316106E-12 -3.308722E-13
        62  10 -5.541383E+05 -2.202908E+05 -1.548858E+05  1.911768E+05  0.000000E+00 -1.654361E-13
        62  11 -5.435373E+05 -2.242548E+05 -1.535584E+05  1.891318E+05  1.158053E-12 -3.308722E-13
        62  12 -5.259676E+05 -2.272198E+05 -1.506375E+05  1.872895E+05 -1.240771E-13 -3.101927E-13
        62  13 -5.699676E+05 -1.967368E+05 -1.533409E+05  1.833305E+05 -6.617445E-13  0.000000E+00
        62  14 -5.547978E+05 -1.994129E+05 -1.508421E+05  1.813098E+05 -3.308722E-13 -3.308722E-13
        62  15 -5.326195E+05 -2.007480E+05 -1.466735E+05  1.794241E+05 -1.654361E-13  5.790264E-13
        62  16 -5.877461E+05 -1.780989E+05 -1.531690E+05  1.738480E+05  0.000000E+00  1.654361E-13
        62  17 -5.684783E+05 -1.800607E+05 -1.497078E+05  1.715420E+05 -9.926167E-13  8.271806E-14
        62  18 -5.422514E+05 -1.805075E+05 -1.445518E+05  1.692635E+05 -4.135903E-14  3.101927E-13
        62  19 -5.541383E+05 -2.202908E+05 -1.548858E+05  1.911768E+05  3.308722E-13 -2.812414E-12
        62  20 -5.435373E+05 -2.242548E+05 -1.535584E+05  1.891318E+05 -9.098987E-13 -3.308722E-13
        62  21 -5.259676E+05 -2.272198E+05 -1.506375E+05  1.872895E+05  5.935021E-12  4.756289E-13
        62  22 -5.699676E+05 -1.967368E+05 -1.533409E+05  1.833305E+05 -6.617445E-13 -6.617445E-13
        62  23 -5.547978E+05 -1.994129E+05 -1.508421E+05  1.813098E+05 -1.323489E-12  3.308722E-13
        62  24 -5.326195E+05 -2.007480E+05 -1.466735E+05  1.794241E+05  7.444626E-13 -1.158053E-12
        62  25 -5.877461E+05 -1.780989E+05 -1.531690E+05  1.738480E+05  0.000000E+00  0.000000E+00
        62  26 -5.684783E+05 -1.800607E+05 -1.497078E+05  1.715420E+05 -6.617445E-13 -1.985233E-12
        62  27 -5.422514E+05 -1.805075E+05 -1.445518E+05  1.692635E+05  3.308722E-13  3.308722E-13
        63   1 -5.985595E+05 -1.700533E+05 -1.537226E+05  1.715932E+05  2.150670E-12  2.729696E-12
        63   2 -5.776354E+05 -1.697171E+05 -1.494705E+05  1.714723E+05  6.617445E-13 -2.646978E-12
        63   3 -5.462953E+05 -1.673681E+05 -1.427327E+05  1.703099E+05  0.000000E+00  6.617445E-13
        63   4 -6.152201E+05 -1.616956E+05 -1.553831E+05  1.746869E+05 -4.963084E-13  9.098987E-13
        63   5 -5.888110E+05 -1.573251E+05 -1.492272E+05  1.740404E+05 -1.654361E-12 -9.926167E-13
        63   6 -5.524210E+05 -1.506851E+05 -1.406212E+05  1.725157E+05 -1.985233E-12 -3.308722E-13
        63   7 -6.343088E+05 -1.596568E+05 -1.587931E+05  1.758064E+05 -4.135903E-14 -1.033976E-13
        63   8 -6.028794E+05 -1.522090E+05 -1.510177E+05  1.744192E+05 -3.308722E-13  8.271806E-14
        63   9 -5.618975E+05 -1.424072E+05 -1.408609E+05  1.722612E+05  0.000000E+00  8.271806E-14
        63  10 -5.985595E+05 -1.700533E+05 -1.537226E+05  1.715932E+05  0.000000E+00  0.000000E+00
        63  11 -5.776354E+05 -1.697171E+05 -1.494705E+05  1.714723E+05 -3.722313E-13  1.240771E-13
        63  12 -5.462953E+05 -1.673681E+05 -1.427327E+05  1.703099E+05 -1.033976E-14  4.135903E-14
        63  13 -6.152201E+05 -1.616956E+05 -1.553831E+05  1.746869E+05  0.000000E+00  1.654361E-13
        63  14 -5.888110E+05 -1.573251E+05 -1.492272E+05  1.740404E+05  3.308722E-13  8.271806E-14
        63  15 -5.524210E+05 -1.506851E+05 -1.406212E+05  1.725157E+05  2.067952E-13 -6.203855E-14
        63  16 -6.343088E+05 -1.596568E+05 -1.587931E+05  1.758064E+05 -1.654361E-13  0.000000E+00
        63  17 -6.028794E+05 -1.522090E+05 -1.510177E+05  1.744192E+05  8.271806E-14 -4.135903E-14
        63  18 -5.618975E+05 -1.424072E+05 -1.408609E+05  1.722612E+05 -3.101927E-14 -3.101927E-14
        63  19 -5.985595E+05 -1.700533E+05 -1.537226E+05  1.715932E+05 -8.271806E-13 -8.271806E-14
        63  20 -5.776354E+05 -1.697171E+05 -1.494705E+05  1.714723E+05  6.617445E-13  0.000000E+00
        63  21 -5.462953E+05 -1.673681E+05 -1.427327E+05  1.703099E+05  0.000000E+00 -6.617445E-13
        63  22 -6.152201E+05 -1.616956E+05 -1.553831E+05  1.746869E+05  4.963084E-13  4.135903E-13
        63  23 -5.888110E+05 -1.573251E+05 -1.492272E+05  1.740404E+05 -3.308722E-13 -3.308722E-13
        63  24 -5.524210E+05 -1.506851E+05 -1.406212E+05  1.725157E+05  6.617445E-13  3.308722E-13
        63  25 -6.343088E+05 -1.596568E+05 -1.587931E+05  1.758064E+05 -2.895132E-13 -6.203855E-14
        63  26 -6.028794E+05 -1.522090E+05 -1.510177E+05  1.744192E+05  3.308722E-13 -2.481542E-13
        63  27 -5.618975E+05 -1.424072E+05 -1.408609E+05  1.722612E+05  0.000000E+00  8.271806E-14
        64   1 -6.241649E+05 -1.685519E+05 -1.585434E+05  1.725629E+05  1.323489E-12 -2.316106E-12
        64   2 -6.201529E+05 -1.703039E+05 -1.580914E+05  1.725510E+05  3.308722E-12 -1.323489E-12
        64   3 -6.080921E+05 -1.703741E+05 -1.556932E+05  1.720789E+05  0.000000E+00  1.323489E-12
        64   4 -6.475529E+05 -1.628078E+05 -1.620721E+05  1.729274E+05  1.819797E-12 -2.481542E-12
        64   5 -6.406501E+05 -1.618811E+05 -1.605062E+05  1.737305E+05  6.617445E-13  9.926167E-13
        64   6 -6.262798E+05 -1.591662E+05 -1.570892E+05  1.743433E+05 -6.617445E-13 -6.617445E-13
        64   7 -6.736379E+05 -1.674043E+05 -1.682084E+05  1.723919E+05 -4.135903E-14 -3.722313E-13
        64   8 -6.641924E+05 -1.650844E+05 -1.658554E+05  1.739184E+05  0.000000E+00  0.000000E+00
        64   9 -6.478215E+05 -1.610336E+05 -1.617710E+05  1.754769E+05  0.000000E+00  3.308722E-13
        64  10 -6.241649E+05 -1.685519E+05 -1.585434E+05  1.725629E+05  0.000000E+00  8.271806E-14
        64  11 -6.201529E+05 -1.703039E+05 -1.580914E+05  1.725510E+05  3.308722E-13  1.654361E-13
        64  12 -6.080921E+05 -1.703741E+05 -1.556932E+05  1.720789E+05  2.067952E-14  9.305782E-14
        64  13 -6.475529E+05 -1.628078E+05 -1.620721E+05  1.729274E+05 -3.308722E-13  0.000000E+00
        64  14 -6.406501E+05 -1.618811E+05 -1.605062E+05  1.737305E+05  1.654361E-13  8.271806E-14
        64  15 -6.262798E+05 -1.591662E+05 -1.570892E+05  1.743433E+05 -4.135903E-14  1.861156E-13
        64  16 -6.736379E+05 -1.674043E+05 -1.682084E+05  1.723919E+05  0.000000E+00 -8.271806E-14
        64  17 -6.641924E+05 -1.650844E+05 -1.658554E+05  1.739184E+05  0.000000E+00 -4.135903E-14
        64  18 -6.478215E+05 -1.610336E+05 -1.617710E+05  1.754769E+05 -8.271806E-14  2.067952E-14
        64  19 -6.241649E+05 -1.685519E+05 -1.585434E+05  1.725629E+05 -1.323489E-12 -3.308722E-13
        64  20 -6.201529E+05 -1.703039E+05 -1.580914E+05  1.725510E+05 -6.617445E-13  1.323489E-12
        64  21 -6.080921E+05 -1.703741E+05 -1.556932E+05  1.720789E+05  0.000000E+00 -1.323489E-12
        64  22 -6.475529E+05 -1.628078E+05 -1.620721E+05  1.729274E+05  8.271806E-13  4.963084E-13
        64  23 -6.406501E+05 -1.618811E+05 -1.605062E+05  1.737305E+05 -6.617445E-13  3.308722E-13
        64  24 -6.262798E+05 -1.591662E+05 -1.570892E+05  1.743433E+05  6.617445E-13  6.617445E-13
        64  25 -6.736379E+05 -1.674043E+05 -1.682084E+05  1.723919E+05  2.067952E-13  2.067952E-13
        64  26 -6.641924E+05 -1.650844E+05 -1.658554E+05  1.739184E+05 -1.654361E-13  1.654361E-13
        64  27 -6.478215E+05 -1.610336E+05 -1.617710E+05  1.754769E+05 -1.654361E-13 -1.654361E-13
        65   1 -3.094046E+05 -2.777889E+05 -1.174387E+05  1.160523E+05  1.058791E-11 -1.985233E-12
        65   2 -3.224942E+05 -2.721466E+05 -1.189282E+05  1.223544E+05  9.926167E-13 -5.955700E-12
        65   3 -3.368951E+05 -2.668455E+05 -1.207481E+05  1.281288E+05  6.038418E-12 -3.887749E-12
        65   4 -3.030265E+05 -2.721022E+05 -1.150257E+05  1.211561E+05  1.191140E-11  5.293956E-12
        65   5 -3.197766E+05 -2.647168E+05 -1.168987E+05  1.275125E+05 -2.646978E-12 -2.646978E-12
        65   6 -3.368867E+05 -2.574852E+05 -1.188744E+05  1.336517E+05  2.316106E-12  3.308722E-13
        65   7 -2.970967E+05 -2.624023E+05 -1.118998E+05  1.268638E+05  0.000000E+00  5.293956E-12
        65   8 -3.170671E+05 -2.541763E+05 -1.142487E+05  1.330727E+05 -2.646978E-12  7.940934E-12
        65   9 -3.366495E+05 -2.458317E+05 -1.164962E+05  1.393521E+05  1.985233E-12 -3.970467E-12
        65  10 -3.094046E+05 -2.777889E+05 -1.174387E+05  1.160523E+05 -3.308722E-13 -6.617445E-13
        65  11 -3.224942E+05 -2.721466E+05 -1.189282E+05  1.223544E+05 -1.654361E-13  6.617445E-13
        65  12 -3.368951E+05 -2.668455E+05 -1.207481E+05  1.281288E+05 -4.135903E-13 -8.271806E-14
        65  13 -3.030265E+05 -2.721022E+05 -1.150257E+05  1.211561E+05  6.617445E-13 -1.323489E-12
        65  14 -3.197766E+05 -2.647168E+05 -1.168987E+05  1.275125E+05 -1.323489E-12 -4.632211E-12
        65  15 -3.368867E+05 -2.574852E+05 -1.188744E+05  1.336517E+05  1.654361E-13 -9.926167E-13
        65  16 -2.970967E+05 -2.624023E+05 -1.118998E+05  1.268638E+05  3.308722E-13  0.000000E+00
        65  17 -3.170671E+05 -2.541763E+05 -1.142487E+05  1.330727E+05 -8.271806E-13  1.654361E-12
        65  18 -3.366495E+05 -2.458317E+05 -1.164962E+05  1.393521E+05 -6.617445E-13  5.790264E-13
        65  19 -3.094046E+05 -2.777889E+05 -1.174387E+05  1.160523E+05 -2.646978E-12 -3.308722E-12
        65  20 -3.224942E+05 -2.721466E+05 -1.189282E+05  1.223544E+05 -6.286573E-12 -9.926167E-12
        65  21 -3.368951E+05 -2.668455E+05 -1.207481E+05  1.281288E+05 -8.685396E-12  3.887749E-12
        65  22 -3.030265E+05 -2.721022E+05 -1.150257E+05  1.211561E+05 -3.970467E-12 -5.293956E-12
        65  23 -3.197766E+05 -2.647168E+05 -1.168987E+05  1.275125E+05  2.646978E-12 -2.646978E-12
        65  24 -3.368867E+05 -2.574852E+05 -1.188744E+05  1.336517E+05 -7.610062E-12 -3.308722E-13
        65  25 -2.970967E+05 -2.624023E+05 -1.118998E+05  1.268638E+05  2.646978E-12 -5.293956E-12
        65  26 -3.170671E+05 -2.541763E+05 -1.142487E+05  1.330727E+05 -2.646978E-12 -2.646978E-12
        65  27 -3.366495E+05 -2.458317E+05 -1.164962E+05  1.393521E+05 -7.279189E-12  9.264423E-12
        66   1 -3.455199E+05 -2.641117E+05 -1.219263E+05  1.321014E+05 -3.308722E-13 -1.985233E-12
        66   2 -3.577416E+05 -2.600124E+05 -1.235508E+05  1.366792E+05 -6.452009E-12  9.926167E-13
        66   3 -3.702468E+05 -2.559887E+05 -1.252471E+05  1.410706E+05  3.722313E-12  5.955700E-12
        66   4 -3.465367E+05 -2.547033E+05 -1.202480E+05  1.366621E+05  5.293956E-12  2.646978E-12
        66   5 -3.617915E+05 -2.497154E+05 -1.223014E+05  1.410683E+05 -1.985233E-12  7.940934E-12
        66   6 -3.767457E+05 -2.446517E+05 -1.242795E+05  1.454911E+05  3.970467E-12 -8.602678E-12
        66   7 -3.476034E+05 -2.421053E+05 -1.179417E+05  1.421071E+05  1.058791E-11  5.293956E-12
        66   8 -3.657180E+05 -2.369408E+05 -1.205318E+05  1.461130E+05  6.617445E-12  2.646978E-12
        66   9 -3.830448E+05 -2.314917E+05 -1.229073E+05  1.503363E+05  2.316106E-12 -1.323489E-12
        66  10 -3.455199E+05 -2.641117E+05 -1.219263E+05  1.321014E+05 -6.617445E-13 -6.617445E-13
        66  11 -3.577416E+05 -2.600124E+05 -1.235508E+05  1.366792E+05 -9.926167E-13 -1.654361E-12
        66  12 -3.702468E+05 -2.559887E+05 -1.252471E+05  1.410706E+05  8.271806E-13 -1.075335E-12
        66  13 -3.465367E+05 -2.547033E+05 -1.202480E+05  1.366621E+05  2.646978E-12  0.000000E+00
        66  14 -3.617915E+05 -2.497154E+05 -1.223014E+05  1.410683E+05 -6.617445E-13 -2.646978E-12
        66  15 -3.767457E+05 -2.446517E+05 -1.242795E+05  1.454911E+05  0.000000E+00 -3.308722E-13
        66  16 -3.476034E+05 -2.421053E+05 -1.179417E+05  1.421071E+05 -3.308722E-13  6.617445E-13
        66  17 -3.657180E+05 -2.369408E+05 -1.205318E+05  1.461130E+05 -6.617445E-13  0.000000E+00
        66  18 -3.830448E+05 -2.314917E+05 -1.229073E+05  1.503363E+05  1.654361E-13 -2.481542E-13
        66  19 -3.455199E+05 -2.641117E+05 -1.219263E+05  1.321014E+05 -2.316106E-12 -3.308722E-12
        66  20 -3.577416E+05 -2.600124E+05 -1.235508E+05  1.366792E+05  1.158053E-12  4.301339E-12
        66  21 -3.702468E+05 -2.559887E+05 -1.252471E+05  1.410706E+05 -3.722313E-12 -6.617445E-13
        66  22 -3.465367E+05 -2.547033E+05 -1.202480E+05  1.366621E+05 -2.646978E-12 -1.323489E-11
        66  23 -3.617915E+05 -2.497154E+05 -1.223014E+05  1.410683E+05  1.985233E-12 -7.940934E-12
        66  24 -3.767457E+05 -2.446517E+05 -1.242795E+05  1.454911E+05 -9.264423E-12  8.602678E-12
        66  25 -3.476034E+05 -2.421053E+05 -1.179417E+05  1.421071E+05 -2.646978E-12 -5.293956E-12
        66  26 -3.657180E+05 -2.369408E+05 -1.205318E+05  1.461130E+05 -1.323489E-12 -2.646978E-12
        66  27 -3.830448E+05 -2.314917E+05 -1.229073E+05  1.503363E+05 -4.963084E-12  6.617445E-12
        67   1 -3.496841E+05 -2.342099E+05 -1.167788E+05  1.448271E+05  1.323489E-12 -3.308722E-12
        67   2 -3.687950E+05 -2.289081E+05 -1.195406E+05  1.486624E+05  8.768114E-12 -1.985233E-12
        67   3 -3.876370E+05 -2.234690E+05 -1.222212E+05  1.526215E+05 -9.098987E-13 -5.914341E-12
        67   4 -3.519204E+05 -2.222673E+05 -1.148375E+05  1.472610E+05  3.970467E-12  3.970467E-12
        67   5 -3.741999E+05 -2.167375E+05 -1.181875E+05  1.512206E+05 -2.646978E-12  1.985233E-12
        67   6 -3.956966E+05 -2.108457E+05 -1.213085E+05  1.554607E+05  7.279189E-12  1.819797E-12
        67   7 -3.550080E+05 -2.110176E+05 -1.132051E+05  1.507365E+05  0.000000E+00 -5.293956E-12
        67   8 -3.802560E+05 -2.055239E+05 -1.171560E+05  1.545790E+05  5.293956E-12 -3.970467E-12
        67   9 -4.042844E+05 -1.994443E+05 -1.207457E+05  1.588631E+05 -9.926167E-13  2.977850E-12
        67  10 -3.496841E+05 -2.342099E+05 -1.167788E+05  1.448271E+05  0.000000E+00  0.000000E+00
        67  11 -3.687950E+05 -2.289081E+05 -1.195406E+05  1.486624E+05 -9.926167E-13 -3.308722E-13
        67  12 -3.876370E+05 -2.234690E+05 -1.222212E+05  1.526215E+05 -4.549493E-13 -5.790264E-13
        67  13 -3.519204E+05 -2.222673E+05 -1.148375E+05  1.472610E+05  1.323489E-12  0.000000E+00
        67  14 -3.741999E+05 -2.167375E+05 -1.181875E+05  1.512206E+05  6.617445E-13  1.985233E-12
        67  15 -3.956966E+05 -2.108457E+05 -1.213085E+05  1.554607E+05  9.098987E-13  3.308722E-13
        67  16 -3.550080E+05 -2.110176E+05 -1.132051E+05  1.507365E+05  6.617445E-13 -6.617445E-13
        67  17 -3.802560E+05 -2.055239E+05 -1.171560E+05  1.545790E+05  1.654361E-13  0.000000E+00
        67  18 -4.042844E+05 -1.994443E+05 -1.207457E+05  1.588631E+05 -1.654361E-13  1.654361E-13
        67  19 -3.496841E+05 -2.342099E+05 -1.167788E+05  1.448271E+05 -1.323489E-12  8.602678E-12
        67  20 -3.687950E+05 -2.289081E+05 -1.195406E+05  1.486624E+05 -6.121137E-12  7.279189E-12
        67  21 -3.876370E+05 -2.234690E+05 -1.222212E+05  1.526215E+05 -4.384057E-12  6.203855E-13
        67  22 -3.519204E+05 -2.222673E+05 -1.148375E+05  1.472610E+05 -3.970467E-12  1.323489E-12
        67  23 -3.741999E+05 -2.167375E+05 -1.181875E+05  1.512206E+05  2.646978E-12  8.602678E-12
        67  24 -3.956966E+05 -2.108457E+05 -1.213085E+05  1.554607E+05  6.617445E-13  3.474159E-12
        67  25 -3.550080E+05 -2.110176E+05 -1.132051E+05  1.507365E+05  0.000000E+00  5.293956E-12
        67  26 -3.802560E+05 -2.055239E+05 -1.171560E+05  1.545790E+05  2.646978E-12  3.970467E-12
        67  27 -4.042844E+05 -1.994443E+05 -1.207457E+05  1.588631E+05 -4.301339E-12  2.316106E-12
        68   1 -2.941317E+05 -2.543763E+05 -1.097016E+05  1.310158E+05  4.632211E-12  4.963084E-12
        68   2 -3.163615E+05 -2.465128E+05 -1.125749E+05  1.365199E+05  4.632211E-12  7.279189E-12
        68   3 -3.380784E+05 -2.383594E+05 -1.152876E+05  1.422986E+05  7.651421E-13 -2.522901E-12
        68   4 -2.877493E+05 -2.419398E+05 -1.059378E+05  1.335609E+05  6.617445E-13 -5.293956E-12
        68   5 -3.137299E+05 -2.343886E+05 -1.096237E+05  1.389042E+05 -3.308722E-12  9.264423E-12
        68   6 -3.385183E+05 -2.262044E+05 -1.129445E+05  1.447575E+05  3.805031E-12 -9.926167E-13
        68   7 -2.824218E+05 -2.289800E+05 -1.022804E+05  1.370516E+05  1.323489E-12  0.000000E+00
        68   8 -3.117875E+05 -2.220509E+05 -1.067677E+05  1.420428E+05  2.646978E-12 -7.940934E-12
        68   9 -3.394080E+05 -2.141572E+05 -1.107130E+05  1.477693E+05 -4.963084E-13  2.977850E-12
        68  10 -2.941317E+05 -2.543763E+05 -1.097016E+05  1.310158E+05 -3.308722E-13  0.000000E+00
        68  11 -3.163615E+05 -2.465128E+05 -1.125749E+05  1.365199E+05  3.308722E-13  9.926167E-13
        68  12 -3.380784E+05 -2.383594E+05 -1.152876E+05  1.422986E+05  8.271806E-14  8.271806E-13
        68  13 -2.877493E+05 -2.419398E+05 -1.059378E+05  1.335609E+05  1.323489E-12 -1.323489E-12
        68  14 -3.137299E+05 -2.343886E+05 -1.096237E+05  1.389042E+05 -1.323489E-12  0.000000E+00
        68  15 -3.385183E+05 -2.262044E+05 -1.129445E+05  1.447575E+05 -8.271806E-13  4.963084E-13
        68  16 -2.824218E+05 -2.289800E+05 -1.022804E+05  1.370516E+05  6.617445E-13  6.617445E-13
        68  17 -3.117875E+05 -2.220509E+05 -1.067677E+05  1.420428E+05 -9.926167E-13  3.308722E-13
        68  18 -3.394080E+05 -2.141572E+05 -1.107130E+05  1.477693E+05 -5.376674E-13  1.488925E-12
        68  19 -2.941317E+05 -2.543763E+05 -1.097016E+05  1.310158E+05 -1.985233E-12  3.308722E-13
        68  20 -3.163615E+05 -2.465128E+05 -1.125749E+05  1.365199E+05 -7.279189E-12 -1.985233E-12
        68  21 -3.380784E+05 -2.383594E+05 -1.152876E+05  1.422986E+05 -7.651421E-13 -2.771055E-12
        68  22 -2.877493E+05 -2.419398E+05 -1.059378E+05  1.335609E+05 -6.617445E-13  5.293956E-12
        68  23 -3.137299E+05 -2.343886E+05 -1.096237E+05  1.389042E+05 -1.985233E-12 -1.455838E-11
        68  24 -3.385183E+05 -2.262044E+05 -1.129445E+05  1.447575E+05 -1.158053E-12 -4.301339E-12
        68  25 -2.824218E+05 -2.289800E+05 -1.022804E+05  1.370516E+05 -1.323489E-12  5.293956E-12
        68  26 -3.117875E+05 -2.220509E+05 -1.067677E+05  1.420428E+05 -2.646978E-12  2.646978E-12
        68  27 -3.394080E+05 -2.141572E+05 -1.107130E+05  1.477693E+05 -2.150670E-12 -2.977850E-12
        69   1 -3.521934E+05 -2.760081E+05 -1.256403E+05  1.192183E+05  9.926167E-13 -1.058791E-11
        69   2 -3.537820E+05 -2.804446E+05 -1.268453E+05  1.203556E+05  9.595295E-12 -1.852885E-11
        69   3 -3.545395E+05 -2.813148E+05 -1.271709E+05  1.216346E+05  1.488925E-12 -1.224227E-11
        69   4 -3.303779E+05 -2.802466E+05 -1.221249E+05  9.725539E+04  1.323489E-11  5.293956E-12
        69   5 -3.341056E+05 -2.851463E+05 -1.238504E+05  1.017894E+05 -7.940934E-12  1.058791E-11
        69   6 -3.367124E+05 -2.858560E+05 -1.245137E+05  1.071301E+05 -2.316106E-12  1.191140E-11
        69   7 -3.099276E+05 -2.845844E+05 -1.189024E+05  7.510946E+04  5.293956E-12  1.058791E-11
        69   8 -3.148121E+05 -2.898566E+05 -1.209338E+05  8.313192E+04 -2.646978E-12  0.000000E+00
        69   9 -3.179104E+05 -2.902465E+05 -1.216314E+05  9.269675E+04  5.955700E-12 -2.249931E-11
        69  10 -3.521934E+05 -2.760081E+05 -1.256403E+05  1.192183E+05 -6.617445E-13  0.000000E+00
        69  11 -3.537820E+05 -2.804446E+05 -1.268453E+05  1.203556E+05  1.323489E-12  3.308722E-12
        69  12 -3.545395E+05 -2.813148E+05 -1.271709E+05  1.216346E+05  4.963084E-13  9.926167E-13
        69  13 -3.303779E+05 -2.802466E+05 -1.221249E+05  9.725539E+04  0.000000E+00 -2.646978E-12
        69  14 -3.341056E+05 -2.851463E+05 -1.238504E+05  1.017894E+05  1.323489E-12  5.293956E-12
        69  15 -3.367124E+05 -2.858560E+05 -1.245137E+05  1.071301E+05 -1.985233E-12 -2.977850E-12
        69  16 -3.099276E+05 -2.845844E+05 -1.189024E+05  7.510946E+04 -6.617445E-13  2.646978E-12
        69  17 -3.148121E+05 -2.898566E+05 -1.209338E+05  8.313192E+04 -9.926167E-13 -1.323489E-12
        69  18 -3.179104E+05 -2.902465E+05 -1.216314E+05  9.269675E+04 -9.098987E-13  1.654361E-13
        69  19 -3.521934E+05 -2.760081E+05 -1.256403E+05  1.192183E+05 -1.158053E-11  0.000000E+00
        69  20 -3.537820E+05 -2.804446E+05 -1.268453E+05  1.203556E+05  9.926167E-13  7.940934E-12
        69  21 -3.545395E+05 -2.813148E+05 -1.271709E+05  1.216346E+05 -6.782881E-12 -8.933551E-12
        69  22 -3.303779E+05 -2.802466E+05 -1.221249E+05  9.725539E+04 -2.646978E-12 -5.293956E-12
        69  23 -3.341056E+05 -2.851463E+05 -1.238504E+05  1.017894E+05 -2.646978E-12  0.000000E+00
        69  24 -3.367124E+05 -2.858560E+05 -1.245137E+05  1.071301E+05  2.316106E-12 -1.323489E-12
        69  25 -3.099276E+05 -2.845844E+05 -1.189024E+05  7.510946E+04 -5.293956E-12  0.000000E+00
        69  26 -3.148121E+05 -2.898566E+05 -1.209338E+05  8.313192E+04 -7.940934E-12 -1.058791E-11
        69  27 -3.179104E+05 -2.902465E+05 -1.216314E+05  9.269675E+04 -1.124966E-11  2.249931E-11
        70   1 -3.556513E+05 -2.797009E+05 -1.270704E+05  1.239382E+05 -1.654361E-12  1.124966E-11
        70   2 -3.615087E+05 -2.746399E+05 -1.272297E+05  1.302383E+05  1.058791E-11 -1.654361E-12
        70   3 -3.660136E+05 -2.636523E+05 -1.259332E+05  1.368994E+05  7.982293E-12 -1.050519E-11
        70   4 -3.379950E+05 -2.841349E+05 -1.244260E+05  1.117890E+05  7.940934E-12 -2.646978E-12
        70   5 -3.463296E+05 -2.792920E+05 -1.251243E+05  1.208864E+05 -3.970467E-12  2.646978E-12
        70   6 -3.527957E+05 -2.675849E+05 -1.240761E+05  1.316328E+05  7.279189E-12 -5.624828E-12
        70   7 -3.211818E+05 -2.886349E+05 -1.219633E+05  9.943513E+04  5.293956E-12  1.058791E-11
        70   8 -3.308793E+05 -2.838263E+05 -1.229411E+05  1.113914E+05 -1.323489E-12 -5.293956E-12
        70   9 -3.373657E+05 -2.709892E+05 -1.216710E+05  1.264650E+05  2.316106E-12  9.926167E-12
        70  10 -3.556513E+05 -2.797009E+05 -1.270704E+05  1.239382E+05  0.000000E+00 -1.323489E-12
        70  11 -3.615087E+05 -2.746399E+05 -1.272297E+05  1.302383E+05 -6.617445E-13  0.000000E+00
        70  12 -3.660136E+05 -2.636523E+05 -1.259332E+05  1.368994E+05  1.240771E-12  0.000000E+00
        70  13 -3.379950E+05 -2.841349E+05 -1.244260E+05  1.117890E+05 -2.646978E-12  0.000000E+00
        70  14 -3.463296E+05 -2.792920E+05 -1.251243E+05  1.208864E+05 -1.985233E-12 -5.293956E-12
        70  15 -3.527957E+05 -2.675849E+05 -1.240761E+05  1.316328E+05  3.308722E-13 -9.926167E-13
        70  16 -3.211818E+05 -2.886349E+05 -1.219633E+05  9.943513E+04  0.000000E+00  0.000000E+00
        70  17 -3.308793E+05 -2.838263E+05 -1.229411E+05  1.113914E+05 -6.617445E-13  3.308722E-12
        70  18 -3.373657E+05 -2.709892E+05 -1.216710E+05  1.264650E+05  6.617445E-13  7.444626E-13
        70  19 -3.556513E+05 -2.797009E+05 -1.270704E+05  1.239382E+05  1.654361E-12 -1.124966E-11
        70  20 -3.615087E+05 -2.746399E+05 -1.272297E+05  1.302383E+05 -5.293956E-12  6.948317E-12
        70  21 -3.660136E+05 -2.636523E+05 -1.259332E+05  1.368994E+05  2.605619E-12  1.579915E-11
        70  22 -3.379950E+05 -2.841349E+05 -1.244260E+05  1.117890E+05 -7.940934E-12 -7.940934E-12
        70  23 -3.463296E+05 -2.792920E+05 -1.251243E+05  1.208864E+05  3.970467E-12 -7.940934E-12
        70  24 -3.527957E+05 -2.675849E+05 -1.240761E+05  1.316328E+05 -1.257315E-11  3.308722E-13
        70  25 -3.211818E+05 -2.886349E+05 -1.219633E+05  9.943513E+04 -5.293956E-12  1.058791E-11
        70  26 -3.308793E+05 -2.838263E+05 -1.229411E+05  1.113914E+05  1.323489E-12 -5.293956E-12
        70  27 -3.373657E+05 -2.709892E+05 -1.216710E+05  1.264650E+05  2.977850E-12 -4.632211E-12
        71   1 -3.110127E+05 -2.928347E+05 -1.207695E+05  9.158223E+04  5.293956E-12  3.308722E-12
        71   2 -3.210477E+05 -2.872951E+05 -1.216686E+05  1.070781E+05  8.271806E-12 -1.191140E-11
        71   3 -3.293293E+05 -2.742252E+05 -1.207109E+05  1.231893E+05  9.223064E-12  6.534727E-12
        71   4 -2.934905E+05 -3.000862E+05 -1.187153E+05  7.508335E+04 -6.617445E-12 -7.940934E-12
        71   5 -3.068356E+05 -2.946802E+05 -1.203032E+05  9.446968E+04 -4.632211E-12 -5.293956E-12
        71   6 -3.165421E+05 -2.801086E+05 -1.193301E+05  1.165485E+05 -1.158053E-12 -8.933551E-12
        71   7 -2.770579E+05 -3.073873E+05 -1.168890E+05  5.825357E+04  7.940934E-12 -2.117582E-11
        71   8 -2.919999E+05 -3.018364E+05 -1.187672E+05  8.163836E+04  1.323489E-11  0.000000E+00
        71   9 -2.998097E+05 -2.850584E+05 -1.169736E+05  1.101364E+05  3.308722E-12 -5.955700E-12
        71  10 -3.110127E+05 -2.928347E+05 -1.207695E+05  9.158223E+04  9.926167E-13  0.000000E+00
        71  11 -3.210477E+05 -2.872951E+05 -1.216686E+05  1.070781E+05  4.963084E-13  6.617445E-13
        71  12 -3.293293E+05 -2.742252E+05 -1.207109E+05  1.231893E+05  6.203855E-13 -8.271806E-13
        71  13 -2.934905E+05 -3.000862E+05 -1.187153E+05  7.508335E+04  0.000000E+00  0.000000E+00
        71  14 -3.068356E+05 -2.946802E+05 -1.203032E+05  9.446968E+04 -6.617445E-13 -2.646978E-12
        71  15 -3.165421E+05 -2.801086E+05 -1.193301E+05  1.165485E+05  3.308722E-13  3.308722E-13
        71  16 -2.770579E+05 -3.073873E+05 -1.168890E+05  5.825357E+04  0.000000E+00 -1.323489E-12
        71  17 -2.919999E+05 -3.018364E+05 -1.187672E+05  8.163836E+04  4.963084E-13 -6.617445E-13
        71  18 -2.998097E+05 -2.850584E+05 -1.169736E+05  1.101364E+05 -8.271806E-14  9.926167E-13
        71  19 -3.110127E+05 -2.928347E+05 -1.207695E+05  9.158223E+04 -1.058791E-11  7.279189E-12
        71  20 -3.210477E+05 -2.872951E+05 -1.216686E+05  1.070781E+05 -8.271806E-12  6.617445E-12
        71  21 -3.293293E+05 -2.742252E+05 -1.207109E+05  1.231893E+05  1.364848E-12 -6.534727E-12
        71  22 -2.934905E+05 -3.000862E+05 -1.187153E+05  7.508335E+04  1.323489E-12 -2.646978E-12
        71  23 -3.068356E+05 -2.946802E+05 -1.203032E+05  9.446968E+04  1.985233E-12  5.293956E-12
        71  24 -3.165421E+05 -2.801086E+05 -1.193301E+05  1.165485E+05 -4.135903E-12  3.639595E-12
        71  25 -2.770579E+05 -3.073873E+05 -1.168890E+05  5.825357E+04 -1.058791E-11  1.058791E-11
        71  26 -2.919999E+05 -3.018364E+05 -1.187672E+05  8.163836E+04 -5.293956E-12  5.293956E-12
        71  27 -2.998097E+05 -2.850584E+05 -1.169736E+05  1.101364E+05  1.985233E-12 -4.632211E-12
        72   1 -2.998596E+05 -2.878922E+05 -1.175504E+05  6.065791E+04  3.308722E-12  2.646978E-12
        72   2 -3.046759E+05 -2.928833E+05 -1.195118E+05  7.061631E+04  6.286573E-12  6.617445E-13
        72   3 -3.073232E+05 -2.940620E+05 -1.202770E+05  8.267021E+04  2.109311E-12  1.141509E-11
        72   4 -2.845300E+05 -2.926391E+05 -1.154338E+05  3.645850E+04  1.191140E-11  0.000000E+00
        72   5 -2.890196E+05 -2.987860E+05 -1.175611E+05  4.881814E+04 -4.632211E-12 -1.058791E-11
        72   6 -2.901769E+05 -3.008442E+05 -1.182042E+05  6.377791E+04  2.812414E-12  7.279189E-12
        72   7 -2.729057E+05 -2.976703E+05 -1.141152E+05  1.178225E+04  5.293956E-12  0.000000E+00
        72   8 -2.763063E+05 -3.048522E+05 -1.162317E+05  2.646246E+04  9.264423E-12 -2.117582E-11
        72   9 -2.748402E+05 -3.076045E+05 -1.164889E+05  4.424625E+04  4.963084E-12  1.323489E-12
        72  10 -2.998596E+05 -2.878922E+05 -1.175504E+05  6.065791E+04  0.000000E+00  0.000000E+00
        72  11 -3.046759E+05 -2.928833E+05 -1.195118E+05  7.061631E+04 -4.963084E-13  3.308722E-12
        72  12 -3.073232E+05 -2.940620E+05 -1.202770E+05  8.267021E+04  4.135903E-14  8.271806E-13
        72  13 -2.845300E+05 -2.926391E+05 -1.154338E+05  3.645850E+04 -1.323489E-12  0.000000E+00
        72  14 -2.890196E+05 -2.987860E+05 -1.175611E+05  4.881814E+04  1.985233E-12  3.970467E-12
        72  15 -2.901769E+05 -3.008442E+05 -1.182042E+05  6.377791E+04  3.308722E-13  1.654361E-12
        72  16 -2.729057E+05 -2.976703E+05 -1.141152E+05  1.178225E+04  3.308722E-13 -2.646978E-12
        72  17 -2.763063E+05 -3.048522E+05 -1.162317E+05  2.646246E+04  2.150670E-12 -6.617445E-13
        72  18 -2.748402E+05 -3.076045E+05 -1.164889E+05  4.424625E+04  5.790264E-13  2.316106E-12
        72  19 -2.998596E+05 -2.878922E+05 -1.175504E+05  6.065791E+04 -3.308722E-12 -2.646978E-12
        72  20 -3.046759E+05 -2.928833E+05 -1.195118E+05  7.061631E+04 -9.926167E-13  9.926167E-12
        72  21 -3.073232E+05 -2.940620E+05 -1.202770E+05  8.267021E+04 -7.403266E-12 -1.141509E-11
        72  22 -2.845300E+05 -2.926391E+05 -1.154338E+05  3.645850E+04 -6.617445E-12  0.000000E+00
        72  23 -2.890196E+05 -2.987860E+05 -1.175611E+05  4.881814E+04 -6.617445E-13  0.000000E+00
        72  24 -2.901769E+05 -3.008442E+05 -1.182042E+05  6.377791E+04 -2.812414E-12  3.308722E-12
        72  25 -2.729057E+05 -2.976703E+05 -1.141152E+05  1.178225E+04 -5.293956E-12  0.000000E+00
        72  26 -2.763063E+05 -3.048522E+05 -1.162317E+05  2.646246E+04 -3.970467E-12  1.058791E-11
        72  27 -2.748402E+05 -3.076045E+05 -1.164889E+05  4.424625E+04 -2.316106E-12 -1.323489E-12
        73   1 -4.307414E+05 -1.311274E+05 -1.123738E+05  2.028639E+05  6.617445E-13 -3.308722E-13
        73   2 -3.894348E+05 -1.517031E+05 -1.082276E+05  2.032199E+05  3.308722E-13 -1.158053E-12
        73   3 -3.507301E+05 -1.804949E+05 -1.062450E+05  2.019182E+05  4.135903E-13 -5.376674E-13
        73   4 -4.169501E+05 -1.548759E+05 -1.143652E+05  1.921392E+05 -6.617445E-13 -6.617445E-13
        73   5 -3.795356E+05 -1.710085E+05 -1.101088E+05  1.899988E+05 -6.617445E-13 -1.654361E-12
        73   6 -3.455055E+05 -1.959443E+05 -1.082900E+05  1.853636E+05  1.737079E-12 -2.481542E-12
        73   7 -4.048745E+05 -1.722484E+05 -1.154246E+05  1.828192E+05  1.985233E-12  0.000000E+00
        73   8 -3.715303E+05 -1.821754E+05 -1.107411E+05  1.783967E+05  1.323489E-12  1.323489E-12
        73   9 -3.423869E+05 -2.009899E+05 -1.086754E+05  1.707188E+05  4.963084E-13  3.639595E-12
        73  10 -4.307414E+05 -1.311274E+05 -1.123738E+05  2.028639E+05  8.271806E-14 -8.271806E-14
        73  11 -3.894348E+05 -1.517031E+05 -1.082276E+05  2.032199E+05  0.000000E+00 -1.654361E-13
        73  12 -3.507301E+05 -1.804949E+05 -1.062450E+05  2.019182E+05  2.067952E-14 -2.998530E-13
        73  13 -4.169501E+05 -1.548759E+05 -1.143652E+05  1.921392E+05 -3.308722E-13 -1.654361E-13
        73  14 -3.795356E+05 -1.710085E+05 -1.101088E+05  1.899988E+05 -5.790264E-13 -8.271806E-14
        73  15 -3.455055E+05 -1.959443E+05 -1.082900E+05  1.853636E+05 -1.447566E-13 -2.895132E-13
        73  16 -4.048745E+05 -1.722484E+05 -1.154246E+05  1.828192E+05  0.000000E+00  0.000000E+00
        73  17 -3.715303E+05 -1.821754E+05 -1.107411E+05  1.783967E+05  2.067952E-13 -1.654361E-13
        73  18 -3.423869E+05 -2.009899E+05 -1.086754E+05  1.707188E+05  1.033976E-13 -3.205325E-13
        73  19 -4.307414E+05 -1.311274E+05 -1.123738E+05  2.028639E+05 -3.308722E-13 -3.308722E-13
        73  20 -3.894348E+05 -1.517031E+05 -1.082276E+05  2.032199E+05 -9.926167E-13 -1.654361E-13
        73  21 -3.507301E+05 -1.804949E+05 -1.062450E+05  2.019182E+05  2.481542E-13 -7.858216E-13
        73  22 -4.169501E+05 -1.548759E+05 -1.143652E+05  1.921392E+05 -6.617445E-13 -6.617445E-13
        73  23 -3.795356E+05 -1.710085E+05 -1.101088E+05  1.899988E+05  6.617445E-13 -2.316106E-12
        73  24 -3.455055E+05 -1.959443E+05 -1.082900E+05  1.853636E+05 -3.060568E-12 -1.488925E-12
        73  25 -4.048745E+05 -1.722484E+05 -1.154246E+05  1.828192E+05  6.617445E-13  1.323489E-12
        73  26 -3.715303E+05 -1.821754E+05 -1.107411E+05  1.783967E+05 -1.323489E-12  1.323489E-12
        73  27 -3.423869E+05 -2.009899E+05 -1.086754E+05  1.707188E+05 -4.963084E-13 -9.926167E-13
        74   1 -3.295918E+05 -1.968462E+05 -1.052876E+05  1.973349E+05 -3.308722E-13  6.617445E-13
        74   2 -2.927126E+05 -2.137780E+05 -1.012981E+05  1.827370E+05  1.406207E-12 -1.819797E-12
        74   3 -2.573829E+05 -2.332036E+05 -9.811732E+04  1.667251E+05  1.861156E-12  1.613002E-12
        74   4 -3.254434E+05 -2.005967E+05 -1.052080E+05  1.796659E+05 -6.617445E-13  1.323489E-12
        74   5 -2.901514E+05 -2.132226E+05 -1.006748E+05  1.673112E+05  2.646978E-12  6.617445E-13
        74   6 -2.561570E+05 -2.260828E+05 -9.644796E+04  1.538992E+05  2.895132E-12 -2.646978E-12
        74   7 -3.239441E+05 -2.079571E+05 -1.063802E+05  1.640409E+05  1.323489E-12  7.940934E-12
        74   8 -2.907074E+05 -2.178698E+05 -1.017155E+05  1.542830E+05  0.000000E+00  1.323489E-12
        74   9 -2.587279E+05 -2.265198E+05 -9.704952E+04  1.439671E+05  9.926167E-13  6.617445E-13
        74  10 -3.295918E+05 -1.968462E+05 -1.052876E+05  1.973349E+05  0.000000E+00  0.000000E+00
        74  11 -2.927126E+05 -2.137780E+05 -1.012981E+05  1.827370E+05  2.481542E-13  0.000000E+00
        74  12 -2.573829E+05 -2.332036E+05 -9.811732E+04  1.667251E+05 -2.067952E-13  8.892192E-13
        74  13 -3.254434E+05 -2.005967E+05 -1.052080E+05  1.796659E+05  0.000000E+00  0.000000E+00
        74  14 -2.901514E+05 -2.132226E+05 -1.006748E+05  1.673112E+05 -3.308722E-13  9.926167E-13
        74  15 -2.561570E+05 -2.260828E+05 -9.644796E+04  1.538992E+05  2.895132E-13 -5.790264E-13
        74  16 -3.239441E+05 -2.079571E+05 -1.063802E+05  1.640409E+05 -3.308722E-13 -3.308722E-13
        74  17 -2.907074E+05 -2.178698E+05 -1.017155E+05  1.542830E+05 -5.790264E-13 -1.654361E-13
        74  18 -2.587279E+05 -2.265198E+05 -9.704952E+04  1.439671E+05 -1.447566E-13 -2.067952E-14
        74  19 -3.295918E+05 -1.968462E+05 -1.052876E+05  1.973349E+05  3.308722E-13 -3.308722E-12
        74  20 -2.927126E+05 -2.137780E+05 -1.012981E+05  1.827370E+05 -1.406207E-12  1.819797E-12
        74  21 -2.573829E+05 -2.332036E+05 -9.811732E+04  1.667251E+05 -4.508134E-12 -4.259980E-12
        74  22 -3.254434E+05 -2.005967E+05 -1.052080E+05  1.796659E+05  6.617445E-13  1.323489E-12
        74  23 -2.901514E+05 -2.132226E+05 -1.006748E+05  1.673112E+05  2.646978E-12 -6.617445E-13
        74  24 -2.561570E+05 -2.260828E+05 -9.644796E+04  1.538992E+05 -2.895132E-12 -2.646978E-12
        74  25 -3.239441E+05 -2.079571E+05 -1.063802E+05  1.640409E+05 -1.323489E-12 -2.646978E-12
        74  26 -2.907074E+05 -2.178698E+05 -1.017155E+05  1.542830E+05 -1.323489E-12  3.970467E-12
        74  27 -2.587279E+05 -2.265198E+05 -9.704952E+04  1.439671E+05 -2.316106E-12 -6.617445E-13
        75   1 -3.259506E+05 -2.057296E+05 -1.063361E+05  1.576652E+05 -3.308722E-13 -1.985233E-12
        75   2 -2.956977E+05 -2.140219E+05 -1.019439E+05  1.482284E+05  4.466775E-12 -6.617445E-12
        75   3 -2.650152E+05 -2.206487E+05 -9.713277E+04  1.392945E+05  1.488925E-12 -9.512577E-13
        75   4 -3.311089E+05 -2.049223E+05 -1.072062E+05  1.514919E+05 -1.323489E-12 -1.323489E-12
        75   5 -3.011064E+05 -2.120479E+05 -1.026309E+05  1.438662E+05  6.617445E-13 -1.323489E-12
        75   6 -2.703645E+05 -2.170494E+05 -9.748278E+04  1.372094E+05  1.058791E-11 -5.955700E-12
        75   7 -3.392840E+05 -2.103740E+05 -1.099316E+05  1.475900E+05 -1.323489E-12  2.646978E-12
        75   8 -3.096603E+05 -2.173560E+05 -1.054033E+05  1.418509E+05 -2.646978E-12  1.323489E-12
        75   9 -2.790501E+05 -2.221967E+05 -1.002494E+05  1.375642E+05  2.316106E-12 -9.926167E-13
        75  10 -3.259506E+05 -2.057296E+05 -1.063361E+05  1.576652E+05  0.000000E+00  0.000000E+00
        75  11 -2.956977E+05 -2.140219E+05 -1.019439E+05  1.482284E+05  0.000000E+00  1.819797E-12
        75  12 -2.650152E+05 -2.206487E+05 -9.713277E+04  1.392945E+05 -1.033976E-13  3.722313E-13
        75  13 -3.311089E+05 -2.049223E+05 -1.072062E+05  1.514919E+05  0.000000E+00 -6.617445E-13
        75  14 -3.011064E+05 -2.120479E+05 -1.026309E+05  1.438662E+05  1.654361E-12  0.000000E+00
        75  15 -2.703645E+05 -2.170494E+05 -9.748278E+04  1.372094E+05  1.654361E-13  6.617445E-13
        75  16 -3.392840E+05 -2.103740E+05 -1.099316E+05  1.475900E+05 -9.926167E-13 -3.308722E-13
        75  17 -3.096603E+05 -2.173560E+05 -1.054033E+05  1.418509E+05 -3.308722E-13 -1.654361E-12
        75  18 -2.790501E+05 -2.221967E+05 -1.002494E+05  1.375642E+05 -4.135903E-14  3.308722E-13
        75  19 -3.259506E+05 -2.057296E+05 -1.063361E+05  1.576652E+05 -3.639595E-12  1.985233E-12
        75  20 -2.956977E+05 -2.140219E+05 -1.019439E+05  1.482284E+05 -3.143286E-12  1.323489E-12
        75  21 -2.650152E+05 -2.206487E+05 -9.713277E+04  1.392945E+05 -4.135903E-12  9.512577E-13
        75  22 -3.311089E+05 -2.049223E+05 -1.072062E+05  1.514919E+05 -1.323489E-12  1.323489E-12
        75  23 -3.011064E+05 -2.120479E+05 -1.026309E+05  1.438662E+05 -6.617445E-13  1.323489E-12
        75  24 -2.703645E+05 -2.170494E+05 -9.748278E+04  1.372094E+05 -2.646978E-12  6.617445E-13
        75  25 -3.392840E+05 -2.103740E+05 -1.099316E+05  1.475900E+05 -1.323489E-12  0.000000E+00
        75  26 -3.096603E+05 -2.173560E+05 -1.054033E+05  1.418509E+05  2.646978E-12 -6.617445E-12
        75  27 -2.790501E+05 -2.221967E+05 -1.002494E+05  1.375642E+05  3.308722E-13 -4.301339E-12
        76   1 -4.046906E+05 -1.814228E+05 -1.172227E+05  1.745900E+05 -3.308722E-13 -5.624828E-12
        76   2 -3.743790E+05 -1.907256E+05 -1.130209E+05  1.687196E+05  8.271806E-13  1.488925E-12
        76   3 -3.441407E+05 -2.003360E+05 -1.088954E+05  1.627588E+05  6.658804E-12 -3.970467E-12
        76   4 -4.033526E+05 -1.858145E+05 -1.178334E+05  1.658886E+05  6.617445E-12 -1.323489E-12
        76   5 -3.751597E+05 -1.934120E+05 -1.137143E+05  1.605598E+05 -1.323489E-12  2.646978E-12
        76   6 -3.473240E+05 -2.011626E+05 -1.096973E+05  1.550910E+05  3.970467E-12  1.158053E-12
        76   7 -4.056975E+05 -1.944951E+05 -1.200385E+05  1.599919E+05 -2.646978E-12  0.000000E+00
        76   8 -3.799769E+05 -2.008103E+05 -1.161574E+05  1.554926E+05  3.970467E-12 -7.940934E-12
        76   9 -3.549879E+05 -2.072420E+05 -1.124460E+05  1.508830E+05  6.617445E-13  1.323489E-12
        76  10 -4.046906E+05 -1.814228E+05 -1.172227E+05  1.745900E+05  1.654361E-13  0.000000E+00
        76  11 -3.743790E+05 -1.907256E+05 -1.130209E+05  1.687196E+05 -3.308722E-13 -4.963084E-13
        76  12 -3.441407E+05 -2.003360E+05 -1.088954E+05  1.627588E+05  4.135903E-14 -8.271806E-14
        76  13 -4.033526E+05 -1.858145E+05 -1.178334E+05  1.658886E+05 -6.617445E-13  1.323489E-12
        76  14 -3.751597E+05 -1.934120E+05 -1.137143E+05  1.605598E+05  0.000000E+00 -9.926167E-13
        76  15 -3.473240E+05 -2.011626E+05 -1.096973E+05  1.550910E+05 -8.271806E-14  8.271806E-14
        76  16 -4.056975E+05 -1.944951E+05 -1.200385E+05  1.599919E+05 -3.308722E-13  3.308722E-13
        76  17 -3.799769E+05 -2.008103E+05 -1.161574E+05  1.554926E+05 -8.271806E-13  1.488925E-12
        76  18 -3.549879E+05 -2.072420E+05 -1.124460E+05  1.508830E+05  2.481542E-13  1.654361E-13
        76  19 -4.046906E+05 -1.814228E+05 -1.172227E+05  1.745900E+05  3.308722E-13  3.308722E-13
        76  20 -3.743790E+05 -1.907256E+05 -1.130209E+05  1.687196E+05  1.819797E-12 -4.135903E-12
        76  21 -3.441407E+05 -2.003360E+05 -1.088954E+05  1.627588E+05 -2.688337E-12 -1.323489E-12
        76  22 -4.033526E+05 -1.858145E+05 -1.178334E+05  1.658886E+05 -1.323489E-12  1.323489E-12
        76  23 -3.751597E+05 -1.934120E+05 -1.137143E+05  1.605598E+05  2.646978E-12  0.000000E+00
        76  24 -3.473240E+05 -2.011626E+05 -1.096973E+05  1.550910E+05 -3.970467E-12  1.488925E-12
        76  25 -4.056975E+05 -1.944951E+05 -1.200385E+05  1.599919E+05  2.646978E-12 -2.646978E-12
        76  26 -3.799769E+05 -2.008103E+05 -1.161574E+05  1.554926E+05 -3.970467E-12  2.646978E-12
        76  27 -3.549879E+05 -2.072420E+05 -1.124460E+05  1.508830E+05  1.985233E-12  1.323489E-12
        77   1 -1.289135E+05 -2.411458E+05 -7.401185E+04  4.957060E+04 -3.556877E-12  5.376674E-12
        77   2 -1.051744E+05 -1.950714E+05 -6.004916E+04  2.541718E+04 -4.921725E-12  5.190558E-12
        77   3 -1.030150E+05 -1.535190E+05 -5.130680E+04  6.623112E+03 -2.967510E-12  4.084204E-12
        77   4 -1.393971E+05 -2.001784E+05 -6.791510E+04  4.160269E+04 -1.985233E-12  3.805031E-12
        77   5 -1.194150E+05 -1.685288E+05 -5.758875E+04  2.362964E+04 -4.963084E-13  1.654361E-13
        77   6 -1.232310E+05 -1.417405E+05 -5.299431E+04  1.131570E+04 -1.985233E-12  2.440183E-12
        77   7 -1.346659E+05 -1.703101E+05 -6.099520E+04  3.158060E+04 -3.308722E-12  3.970467E-12
        77   8 -1.173005E+05 -1.504513E+05 -5.355037E+04  2.040684E+04 -2.316106E-12  3.805031E-12
        77   9 -1.266537E+05 -1.365521E+05 -5.264115E+04  1.568687E+04 -3.308722E-13  3.805031E-12
        77  10 -1.289135E+05 -2.411458E+05 -7.401185E+04  4.957060E+04  0.000000E+00 -8.271806E-14
        77  11 -1.051744E+05 -1.950714E+05 -6.004916E+04  2.541718E+04 -4.135903E-14  2.481542E-13
        77  12 -1.030150E+05 -1.535190E+05 -5.130680E+04  6.623112E+03  2.481542E-13 -1.033976E-14
        77  13 -1.393971E+05 -2.001784E+05 -6.791510E+04  4.160269E+04  0.000000E+00 -1.654361E-13
        77  14 -1.194150E+05 -1.685288E+05 -5.758875E+04  2.362964E+04  4.963084E-13 -1.654361E-13
        77  15 -1.232310E+05 -1.417405E+05 -5.299431E+04  1.131570E+04  8.271806E-14  1.654361E-13
        77  16 -1.346659E+05 -1.703101E+05 -6.099520E+04  3.158060E+04 -8.271806E-14  0.000000E+00
        77  17 -1.173005E+05 -1.504513E+05 -5.355037E+04  2.040684E+04 -1.240771E-13  1.654361E-13
        77  18 -1.266537E+05 -1.365521E+05 -5.264115E+04  1.568687E+04  1.550964E-13  1.033976E-14
        77  19 -1.289135E+05 -2.411458E+05 -7.401185E+04  4.957060E+04  4.880366E-12 -5.376674E-12
        77  20 -1.051744E+05 -1.950714E+05 -6.004916E+04  2.541718E+04  3.598236E-12 -5.190558E-12
        77  21 -1.030150E+05 -1.535190E+05 -5.130680E+04  6.623112E+03  3.629255E-12 -4.084204E-12
        77  22 -1.393971E+05 -2.001784E+05 -6.791510E+04  4.160269E+04  3.308722E-12 -3.143286E-12
        77  23 -1.194150E+05 -1.685288E+05 -5.758875E+04  2.362964E+04  4.963084E-13 -1.654361E-13
        77  24 -1.232310E+05 -1.417405E+05 -5.299431E+04  1.131570E+04  6.617445E-13 -3.101927E-12
        77  25 -1.346659E+05 -1.703101E+05 -6.099520E+04  3.158060E+04  3.308722E-12 -3.970467E-12
        77  26 -1.173005E+05 -1.504513E+05 -5.355037E+04  2.040684E+04  2.977850E-12 -3.143286E-12
        77  27 -1.266537E+05 -1.365521E+05 -5.264115E+04  1.568687E+04  9.926167E-13 -3.474159E-12
        78   1 -1.061087E+05 -1.388095E+05 -4.898364E+04  1.555263E+02 -1.737079E-12  3.618915E-12
        78   2 -1.005669E+05 -1.208764E+05 -4.428868E+04  3.577182E+02 -1.033976E-12  2.440183E-12
        78   3 -1.053776E+05 -1.090967E+05 -4.289485E+04  2.348612E+03 -1.793948E-12  2.652148E-12
        78   4 -1.170872E+05 -1.351857E+05 -5.045458E+04  7.328147E+03 -6.617445E-13  2.729696E-12
        78   5 -1.091020E+05 -1.224922E+05 -4.631884E+04  5.491719E+03  0.000000E+00 -2.481542E-13
        78   6 -1.120887E+05 -1.137194E+05 -4.516162E+04  6.106231E+03 -6.617445E-13  2.212708E-12
        78   7 -1.254151E+05 -1.312499E+05 -5.133301E+04  1.509117E+04 -1.654361E-12  2.977850E-12
        78   8 -1.149822E+05 -1.216027E+05 -4.731699E+04  1.219969E+04 -1.654361E-12  2.398824E-12
        78   9 -1.160909E+05 -1.152786E+05 -4.627391E+04  1.161258E+04 -1.116694E-12  2.667657E-12
        78  10 -1.061087E+05 -1.388095E+05 -4.898364E+04  1.555263E+02  8.271806E-14  0.000000E+00
        78  11 -1.005669E+05 -1.208764E+05 -4.428868E+04  3.577182E+02  1.654361E-13 -2.067952E-14
        78  12 -1.053776E+05 -1.090967E+05 -4.289485E+04  2.348612E+03  2.378144E-13  0.000000E+00
        78  13 -1.170872E+05 -1.351857E+05 -5.045458E+04  7.328147E+03  1.654361E-13  0.000000E+00
        78  14 -1.091020E+05 -1.224922E+05 -4.631884E+04  5.491719E+03  8.271806E-14 -4.135903E-14
        78  15 -1.120887E+05 -1.137194E+05 -4.516162E+04  6.106231E+03  2.067952E-14  4.135903E-14
        78  16 -1.254151E+05 -1.312499E+05 -5.133301E+04  1.509117E+04  8.271806E-14  0.000000E+00
        78  17 -1.149822E+05 -1.216027E+05 -4.731699E+04  1.219969E+04  2.481542E-13 -2.067952E-14
        78  18 -1.160909E+05 -1.152786E+05 -4.627391E+04  1.161258E+04 -1.033976E-14 -1.033976E-14
        78  19 -1.061087E+05 -1.388095E+05 -4.898364E+04  1.555263E+02  1.075335E-12 -3.949787E-12
        78  20 -1.005669E+05 -1.208764E+05 -4.428868E+04  3.577182E+02  1.695720E-12 -2.605619E-12
        78  21 -1.053776E+05 -1.090967E+05 -4.289485E+04  2.348612E+03  1.793948E-12 -2.652148E-12
        78  22 -1.170872E+05 -1.351857E+05 -5.045458E+04  7.328147E+03  1.985233E-12 -2.729696E-12
        78  23 -1.091020E+05 -1.224922E+05 -4.631884E+04  5.491719E+03 -6.617445E-13 -8.271806E-14
        78  24 -1.120887E+05 -1.137194E+05 -4.516162E+04  6.106231E+03  1.323489E-12 -2.378144E-12
        78  25 -1.254151E+05 -1.312499E+05 -5.133301E+04  1.509117E+04  1.654361E-12 -2.977850E-12
        78  26 -1.149822E+05 -1.216027E+05 -4.731699E+04  1.219969E+04  9.926167E-13 -2.398824E-12
        78  27 -1.160909E+05 -1.152786E+05 -4.627391E+04  1.161258E+04  4.549493E-13 -2.667657E-12
        79   1 -1.268084E+05 -1.265553E+05 -5.067276E+04  1.389666E+04 -4.135903E-13  2.677997E-12
        79   2 -1.199608E+05 -1.199500E+05 -4.798217E+04  1.263468E+04 -7.858216E-13  2.667657E-12
        79   3 -1.201300E+05 -1.159064E+05 -4.720727E+04  1.405766E+04 -7.341228E-13  2.787857E-12
        79   4 -1.345947E+05 -1.208035E+05 -5.107962E+04  1.517586E+04 -1.819797E-12  2.398824E-12
        79   5 -1.251557E+05 -1.173718E+05 -4.850550E+04  1.361394E+04 -9.926167E-13 -1.240771E-13
        79   6 -1.235549E+05 -1.169877E+05 -4.810852E+04  1.512316E+04 -1.778438E-12  2.316106E-12
        79   7 -1.415323E+05 -1.142132E+05 -5.114910E+04  1.697561E+04 -9.926167E-13  2.233388E-12
        79   8 -1.290047E+05 -1.143368E+05 -4.866829E+04  1.507267E+04 -9.926167E-13  2.150670E-12
        79   9 -1.252067E+05 -1.180996E+05 -4.866127E+04  1.667832E+04 -9.926167E-13  2.750376E-12
        79  10 -1.268084E+05 -1.265553E+05 -5.067276E+04  1.389666E+04  4.135903E-14  2.067952E-14
        79  11 -1.199608E+05 -1.199500E+05 -4.798217E+04  1.263468E+04  0.000000E+00 -2.067952E-14
        79  12 -1.201300E+05 -1.159064E+05 -4.720727E+04  1.405766E+04 -8.271806E-14  2.584939E-15
        79  13 -1.345947E+05 -1.208035E+05 -5.107962E+04  1.517586E+04  1.654361E-13  0.000000E+00
        79  14 -1.251557E+05 -1.173718E+05 -4.850550E+04  1.361394E+04  3.308722E-13 -4.135903E-14
        79  15 -1.235549E+05 -1.169877E+05 -4.810852E+04  1.512316E+04  2.067952E-14 -5.169879E-15
        79  16 -1.415323E+05 -1.142132E+05 -5.114910E+04  1.697561E+04 -8.271806E-14  0.000000E+00
        79  17 -1.290047E+05 -1.143368E+05 -4.866829E+04  1.507267E+04 -4.135903E-14 -2.067952E-14
        79  18 -1.252067E+05 -1.180996E+05 -4.866127E+04  1.667832E+04 -1.550964E-14  1.033976E-14
        79  19 -1.268084E+05 -1.265553E+05 -5.067276E+04  1.389666E+04  4.135903E-13 -2.677997E-12
        79  20 -1.199608E+05 -1.199500E+05 -4.798217E+04  1.263468E+04  1.447566E-12 -2.502221E-12
        79  21 -1.201300E+05 -1.159064E+05 -4.720727E+04  1.405766E+04  1.395867E-12 -2.705139E-12
        79  22 -1.345947E+05 -1.208035E+05 -5.107962E+04  1.517586E+04  1.158053E-12 -2.398824E-12
        79  23 -1.251557E+05 -1.173718E+05 -4.850550E+04  1.361394E+04 -3.308722E-13 -4.135903E-14
        79  24 -1.235549E+05 -1.169877E+05 -4.810852E+04  1.512316E+04  1.447566E-12 -2.398824E-12
        79  25 -1.415323E+05 -1.142132E+05 -5.114910E+04  1.697561E+04  6.617445E-13 -2.398824E-12
        79  26 -1.290047E+05 -1.143368E+05 -4.866829E+04  1.507267E+04  9.926167E-13 -2.233388E-12
        79  27 -1.252067E+05 -1.180996E+05 -4.866127E+04  1.667832E+04  9.926167E-13 -2.750376E-12
        80   1 -1.463505E+05 -1.594201E+05 -6.115411E+04  4.028203E+04 -2.688337E-12  3.598236E-12
        80   2 -1.349089E+05 -1.457069E+05 -5.612315E+04  2.768796E+04 -1.385528E-12  2.698677E-12
        80   3 -1.316604E+05 -1.340130E+05 -5.313466E+04  1.629041E+04 -1.757759E-13  3.078663E-12
        80   4 -1.580291E+05 -1.410683E+05 -5.981948E+04  3.553973E+04 -1.985233E-12  2.233388E-12
        80   5 -1.458368E+05 -1.313411E+05 -5.543557E+04  2.550186E+04  0.000000E+00  2.895132E-13
        80   6 -1.425697E+05 -1.241194E+05 -5.333783E+04  1.714964E+04 -1.302809E-12  2.098971E-12
        80   7 -1.642877E+05 -1.235465E+05 -5.756684E+04  3.149418E+04 -9.926167E-13  2.646978E-12
        80   8 -1.501396E+05 -1.180441E+05 -5.363676E+04  2.408027E+04 -4.963084E-13  1.985233E-12
        80   9 -1.453199E+05 -1.155744E+05 -5.217886E+04  1.883900E+04 -1.406207E-12  2.729696E-12
        80  10 -1.463505E+05 -1.594201E+05 -6.115411E+04  4.028203E+04  8.271806E-14  0.000000E+00
        80  11 -1.349089E+05 -1.457069E+05 -5.612315E+04  2.768796E+04 -8.271806E-14  6.203855E-14
        80  12 -1.316604E+05 -1.340130E+05 -5.313466E+04  1.629041E+04 -1.344168E-13 -2.067952E-14
        80  13 -1.580291E+05 -1.410683E+05 -5.981948E+04  3.553973E+04  0.000000E+00 -8.271806E-14
        80  14 -1.458368E+05 -1.313411E+05 -5.543557E+04  2.550186E+04 -4.135903E-13  4.135903E-14
        80  15 -1.425697E+05 -1.241194E+05 -5.333783E+04  1.714964E+04  4.135903E-14  3.101927E-14
        80  16 -1.642877E+05 -1.235465E+05 -5.756684E+04  3.149418E+04 -8.271806E-14  0.000000E+00
        80  17 -1.501396E+05 -1.180441E+05 -5.363676E+04  2.408027E+04  4.135903E-14 -8.271806E-14
        80  18 -1.453199E+05 -1.155744E+05 -5.217886E+04  1.883900E+04  3.101927E-14  5.169879E-15
        80  19 -1.463505E+05 -1.594201E+05 -6.115411E+04  4.028203E+04  2.026593E-12 -3.598236E-12
        80  20 -1.349089E+05 -1.457069E+05 -5.612315E+04  2.768796E+04  7.237830E-13 -3.029549E-12
        80  21 -1.316604E+05 -1.340130E+05 -5.313466E+04  1.629041E+04  1.499265E-12 -3.409535E-12
        80  22 -1.580291E+05 -1.410683E+05 -5.981948E+04  3.553973E+04  1.323489E-12 -2.233388E-12
        80  23 -1.458368E+05 -1.313411E+05 -5.543557E+04  2.550186E+04  0.000000E+00 -2.895132E-13
        80  24 -1.425697E+05 -1.241194E+05 -5.333783E+04  1.714964E+04  1.302809E-12 -2.264407E-12
        80  25 -1.642877E+05 -1.235465E+05 -5.756684E+04  3.149418E+04  1.323489E-12 -2.646978E-12
        80  26 -1.501396E+05 -1.180441E+05 -5.363676E+04  2.408027E+04  8.271806E-13 -2.150670E-12
        80  27 -1.453199E+05 -1.155744E+05 -5.217886E+04  1.883900E+04  7.444626E-13 -2.564260E-12
        81   1 -1.993067E+05 -2.614331E+05 -9.214795E+04  1.535523E+05  2.481542E-13 -8.933551E-12
        81   2 -1.855553E+05 -2.585616E+05 -8.882338E+04  1.663359E+05  1.323489E-12 -1.025704E-11
        81   3 -1.905958E+05 -2.643487E+05 -9.098891E+04  1.711978E+05  1.499265E-13  9.926167E-13
        81   4 -1.990504E+05 -2.821000E+05 -9.623010E+04  1.565547E+05  1.323489E-12  2.646978E-12
        81   5 -1.970656E+05 -2.681656E+05 -9.304624E+04  1.734060E+05 -4.963084E-13  0.000000E+00
        81   6 -2.100991E+05 -2.626676E+05 -9.455334E+04  1.829528E+05  2.233388E-12 -3.805031E-12
        81   7 -1.939657E+05 -2.936974E+05 -9.753263E+04  1.674265E+05  0.000000E+00  2.646978E-12
        81   8 -2.041861E+05 -2.707673E+05 -9.499069E+04  1.867416E+05  1.985233E-12  1.323489E-12
        81   9 -2.258807E+05 -2.557772E+05 -9.633159E+04  1.995478E+05  1.902515E-12 -6.617445E-13
        81  10 -1.993067E+05 -2.614331E+05 -9.214795E+04  1.535523E+05 -8.271806E-14 -6.617445E-13
        81  11 -1.855553E+05 -2.585616E+05 -8.882338E+04  1.663359E+05  1.240771E-13  4.963084E-13
        81  12 -1.905958E+05 -2.643487E+05 -9.098891E+04  1.711978E+05  4.135903E-14  8.271806E-14
        81  13 -1.990504E+05 -2.821000E+05 -9.623010E+04  1.565547E+05 -1.654361E-13  0.000000E+00
        81  14 -1.970656E+05 -2.681656E+05 -9.304624E+04  1.734060E+05  0.000000E+00  6.617445E-13
        81  15 -2.100991E+05 -2.626676E+05 -9.455334E+04  1.829528E+05 -1.447566E-13  0.000000E+00
        81  16 -1.939657E+05 -2.936974E+05 -9.753263E+04  1.674265E+05  0.000000E+00 -3.308722E-13
        81  17 -2.041861E+05 -2.707673E+05 -9.499069E+04  1.867416E+05  1.240771E-13 -4.963084E-13
        81  18 -2.258807E+05 -2.557772E+05 -9.633159E+04  1.995478E+05  1.033976E-13  1.654361E-13
        81  19 -1.993067E+05 -2.614331E+05 -9.214795E+04  1.535523E+05 -9.098987E-13  9.926167E-13
        81  20 -1.855553E+05 -2.585616E+05 -8.882338E+04  1.663359E+05  0.000000E+00  2.316106E-12
        81  21 -1.905958E+05 -2.643487E+05 -9.098891E+04  1.711978E+05  5.118180E-13  1.654361E-12
        81  22 -1.990504E+05 -2.821000E+05 -9.623010E+04  1.565547E+05 -1.323489E-12  0.000000E+00
        81  23 -1.970656E+05 -2.681656E+05 -9.304624E+04  1.734060E+05  4.963084E-13  0.000000E+00
        81  24 -2.100991E+05 -2.626676E+05 -9.455334E+04  1.829528E+05 -1.571643E-12  3.805031E-12
        81  25 -1.939657E+05 -2.936974E+05 -9.753263E+04  1.674265E+05  0.000000E+00  0.000000E+00
        81  26 -2.041861E+05 -2.707673E+05 -9.499069E+04  1.867416E+05 -6.617445E-13  1.323489E-12
        81  27 -2.258807E+05 -2.557772E+05 -9.633159E+04  1.995478E+05 -5.790264E-13  6.617445E-13
        82   1 -2.008990E+05 -2.588619E+05 -9.195217E+04  1.685644E+05  2.316106E-12 -1.985233E-12
        82   2 -2.208273E+05 -2.450974E+05 -9.318493E+04  1.718165E+05 -4.135903E-14  1.819797E-12
        82   3 -2.491147E+05 -2.355830E+05 -9.693954E+04  1.709280E+05  1.085675E-12 -2.564260E-12
        82   4 -2.249094E+05 -2.570162E+05 -9.638512E+04  1.829547E+05 -1.654361E-12  3.970467E-12
        82   5 -2.519277E+05 -2.363488E+05 -9.765531E+04  1.860840E+05  8.271806E-13  0.000000E+00
        82   6 -2.851655E+05 -2.194122E+05 -1.009155E+05  1.859143E+05  2.895132E-12 -3.722313E-12
        82   7 -2.418217E+05 -2.371529E+05 -9.579492E+04  2.032911E+05  6.617445E-13  0.000000E+00
        82   8 -2.771261E+05 -2.126631E+05 -9.795783E+04  2.050712E+05  1.985233E-12  1.323489E-12
        82   9 -3.165073E+05 -1.910515E+05 -1.015117E+05  2.044853E+05  2.067952E-12 -9.926167E-13
        82  10 -2.008990E+05 -2.588619E+05 -9.195217E+04  1.685644E+05 -8.271806E-14 -9.926167E-13
        82  11 -2.208273E+05 -2.450974E+05 -9.318493E+04  1.718165E+05  4.135903E-14 -8.271806E-13
        82  12 -2.491147E+05 -2.355830E+05 -9.693954E+04  1.709280E+05  5.169879E-14  2.481542E-13
        82  13 -2.249094E+05 -2.570162E+05 -9.638512E+04  1.829547E+05  0.000000E+00  0.000000E+00
        82  14 -2.519277E+05 -2.363488E+05 -9.765531E+04  1.860840E+05  0.000000E+00  9.926167E-13
        82  15 -2.851655E+05 -2.194122E+05 -1.009155E+05  1.859143E+05 -8.271806E-14  8.271806E-13
        82  16 -2.418217E+05 -2.371529E+05 -9.579492E+04  2.032911E+05  0.000000E+00  3.308722E-13
        82  17 -2.771261E+05 -2.126631E+05 -9.795783E+04  2.050712E+05  1.240771E-13  3.308722E-13
        82  18 -3.165073E+05 -1.910515E+05 -1.015117E+05  2.044853E+05 -1.033976E-14 -1.654361E-13
        82  19 -2.008990E+05 -2.588619E+05 -9.195217E+04  1.685644E+05 -3.308722E-13  1.985233E-12
        82  20 -2.208273E+05 -2.450974E+05 -9.318493E+04  1.718165E+05  4.135903E-14  6.121137E-12
        82  21 -2.491147E+05 -2.355830E+05 -9.693954E+04  1.709280E+05 -2.409164E-12  2.564260E-12
        82  22 -2.249094E+05 -2.570162E+05 -9.638512E+04  1.829547E+05 -9.926167E-13  1.323489E-12
        82  23 -2.519277E+05 -2.363488E+05 -9.765531E+04  1.860840E+05 -8.271806E-13  0.000000E+00
        82  24 -2.851655E+05 -2.194122E+05 -1.009155E+05  1.859143E+05 -1.571643E-12 -1.571643E-12
        82  25 -2.418217E+05 -2.371529E+05 -9.579492E+04  2.032911E+05 -6.617445E-13  2.646978E-12
        82  26 -2.771261E+05 -2.126631E+05 -9.795783E+04  2.050712E+05 -1.985233E-12  3.970467E-12
        82  27 -3.165073E+05 -1.910515E+05 -1.015117E+05  2.044853E+05 -7.444626E-13  9.926167E-13
        83   1 -2.567992E+05 -2.185632E+05 -9.507248E+04  2.164094E+05  7.444626E-13  1.075335E-12
        83   2 -3.032187E+05 -1.988623E+05 -1.004162E+05  2.117029E+05  7.237830E-13 -1.116694E-12
        83   3 -3.419764E+05 -1.774274E+05 -1.038808E+05  2.081307E+05  1.204582E-12 -2.378144E-13
        83   4 -2.925827E+05 -1.878391E+05 -9.608435E+04  2.278855E+05 -3.308722E-13  1.323489E-12
        83   5 -3.416115E+05 -1.700662E+05 -1.023355E+05  2.172150E+05 -1.323489E-12  0.000000E+00
        83   6 -3.825759E+05 -1.495944E+05 -1.064341E+05  2.085873E+05 -3.515518E-13  3.722313E-13
        83   7 -3.268685E+05 -1.465285E+05 -9.467939E+04  2.383617E+05 -3.308722E-13  1.323489E-12
        83   8 -3.791676E+05 -1.326824E+05 -1.023700E+05  2.216056E+05  1.654361E-13  9.926167E-13
        83   9 -4.229515E+05 -1.150107E+05 -1.075924E+05  2.077595E+05  1.654361E-13 -2.481542E-13
        83  10 -2.567992E+05 -2.185632E+05 -9.507248E+04  2.164094E+05  0.000000E+00  0.000000E+00
        83  11 -3.032187E+05 -1.988623E+05 -1.004162E+05  2.117029E+05 -1.240771E-13  5.790264E-13
        83  12 -3.419764E+05 -1.774274E+05 -1.038808E+05  2.081307E+05  1.137373E-13 -1.654361E-13
        83  13 -2.925827E+05 -1.878391E+05 -9.608435E+04  2.278855E+05 -1.654361E-13  0.000000E+00
        83  14 -3.416115E+05 -1.700662E+05 -1.023355E+05  2.172150E+05  1.654361E-13 -3.308722E-13
        83  15 -3.825759E+05 -1.495944E+05 -1.064341E+05  2.085873E+05 -4.135903E-14 -2.895132E-13
        83  16 -3.268685E+05 -1.465285E+05 -9.467939E+04  2.383617E+05  0.000000E+00  0.000000E+00
        83  17 -3.791676E+05 -1.326824E+05 -1.023700E+05  2.216056E+05 -1.654361E-13  3.308722E-13
        83  18 -4.229515E+05 -1.150107E+05 -1.075924E+05  2.077595E+05  1.033976E-14 -1.033976E-13
        83  19 -2.567992E+05 -2.185632E+05 -9.507248E+04  2.164094E+05 -8.271806E-14  1.571643E-12
        83  20 -3.032187E+05 -1.988623E+05 -1.004162E+05  2.117029E+05 -1.385528E-12  1.116694E-12
        83  21 -3.419764E+05 -1.774274E+05 -1.038808E+05  2.081307E+05  1.189072E-13  2.378144E-13
        83  22 -2.925827E+05 -1.878391E+05 -9.608435E+04  2.278855E+05 -3.308722E-13  0.000000E+00
        83  23 -3.416115E+05 -1.700662E+05 -1.023355E+05  2.172150E+05  0.000000E+00  0.000000E+00
        83  24 -3.825759E+05 -1.495944E+05 -1.064341E+05  2.085873E+05 -3.101927E-13 -3.722313E-13
        83  25 -3.268685E+05 -1.465285E+05 -9.467939E+04  2.383617E+05  0.000000E+00 -6.617445E-13
        83  26 -3.791676E+05 -1.326824E+05 -1.023700E+05  2.216056E+05  1.654361E-13  3.308722E-13
        83  27 -4.229515E+05 -1.150107E+05 -1.075924E+05  2.077595E+05 -1.654361E-13  2.481542E-13
        84   1 -1.881637E+05 -2.945365E+05 -9.654004E+04  1.832743E+05  1.323489E-12  1.654361E-13
        84   2 -2.052507E+05 -2.594047E+05 -9.293108E+04  2.055994E+05  7.858216E-13 -2.398824E-12
        84   3 -2.356943E+05 -2.412571E+05 -9.539028E+04  2.141174E+05 -1.049485E-12  2.067952E-14
        84   4 -1.971847E+05 -2.926542E+05 -9.796777E+04  2.083842E+05 -1.654361E-13  6.617445E-13
        84   5 -2.292708E+05 -2.463587E+05 -9.512588E+04  2.220652E+05  1.654361E-13 -1.654361E-12
        84   6 -2.705408E+05 -2.148296E+05 -9.707408E+04  2.248435E+05  1.530284E-12 -1.240771E-12
        84   7 -1.963845E+05 -2.597399E+05 -9.122489E+04  2.410588E+05  0.000000E+00 -3.970467E-12
        84   8 -2.447745E+05 -2.078364E+05 -9.052218E+04  2.449699E+05  8.271806E-13 -1.323489E-12
        84   9 -2.983012E+05 -1.679256E+05 -9.324537E+04  2.408232E+05  2.481542E-13 -8.271806E-13
        84  10 -1.881637E+05 -2.945365E+05 -9.654004E+04  1.832743E+05  0.000000E+00  0.000000E+00
        84  11 -2.052507E+05 -2.594047E+05 -9.293108E+04  2.055994E+05  1.240771E-13  3.308722E-13
        84  12 -2.356943E+05 -2.412571E+05 -9.539028E+04  2.141174E+05  1.757759E-13 -4.135903E-14
        84  13 -1.971847E+05 -2.926542E+05 -9.796777E+04  2.083842E+05  0.000000E+00  0.000000E+00
        84  14 -2.292708E+05 -2.463587E+05 -9.512588E+04  2.220652E+05  0.000000E+00 -3.308722E-13
        84  15 -2.705408E+05 -2.148296E+05 -9.707408E+04  2.248435E+05 -4.135903E-14 -3.308722E-13
        84  16 -1.963845E+05 -2.597399E+05 -9.122489E+04  2.410588E+05 -4.135903E-14  3.308722E-13
        84  17 -2.447745E+05 -2.078364E+05 -9.052218E+04  2.449699E+05 -4.135903E-14 -1.323489E-12
        84  18 -2.983012E+05 -1.679256E+05 -9.324537E+04  2.408232E+05  1.344168E-13  0.000000E+00
        84  19 -1.881637E+05 -2.945365E+05 -9.654004E+04  1.832743E+05 -6.617445E-13  5.128520E-12
        84  20 -2.052507E+05 -2.594047E+05 -9.293108E+04  2.055994E+05 -1.240771E-13 -2.481542E-13
        84  21 -2.356943E+05 -2.412571E+05 -9.539028E+04  2.141174E+05  3.877409E-13  2.626298E-12
        84  22 -1.971847E+05 -2.926542E+05 -9.796777E+04  2.083842E+05 -4.963084E-13  1.985233E-12
        84  23 -2.292708E+05 -2.463587E+05 -9.512588E+04  2.220652E+05 -1.654361E-13 -9.926167E-13
        84  24 -2.705408E+05 -2.148296E+05 -9.707408E+04  2.248435E+05 -1.530284E-12 -8.271806E-14
        84  25 -1.963845E+05 -2.597399E+05 -9.122489E+04  2.410588E+05 -3.308722E-13  0.000000E+00
        84  26 -2.447745E+05 -2.078364E+05 -9.052218E+04  2.449699E+05 -8.271806E-13  2.646978E-12
        84  27 -2.983012E+05 -1.679256E+05 -9.324537E+04  2.408232E+05 -9.098987E-13  1.654361E-13
        85   1 -1.370932E+05 -9.073145E+04 -4.556494E+04  4.361439E+03 -1.261450E-12  1.806873E-12
        85   2 -1.438676E+05 -8.886818E+04 -4.654716E+04  5.705883E+03 -1.002956E-12  1.491510E-12
        85   3 -1.489118E+05 -8.649888E+04 -4.708214E+04  6.775700E+03 -1.090844E-12  1.563888E-12
        85   4 -1.332196E+05 -9.773635E+04 -4.619119E+04  7.588043E+03 -1.240771E-12  1.892176E-12
        85   5 -1.409713E+05 -9.456073E+04 -4.710640E+04  8.428926E+03  1.654361E-13  0.000000E+00
        85   6 -1.489781E+05 -9.159293E+04 -4.811420E+04  9.555953E+03 -4.342698E-13  1.517359E-12
        85   7 -1.303079E+05 -1.038894E+05 -4.683946E+04  9.978625E+03 -2.150670E-12  2.316106E-12
        85   8 -1.388447E+05 -1.002261E+05 -4.781417E+04  1.082329E+04 -8.271806E-13  1.840477E-12
        85   9 -1.486794E+05 -9.714556E+04 -4.916499E+04  1.224860E+04 -8.065011E-13  1.840477E-12
        85  10 -1.370932E+05 -9.073145E+04 -4.556494E+04  4.361439E+03 -2.067952E-14 -5.169879E-15
        85  11 -1.438676E+05 -8.886818E+04 -4.654716E+04  5.705883E+03 -1.033976E-14 -2.584939E-15
        85  12 -1.489118E+05 -8.649888E+04 -4.708214E+04  6.775700E+03  0.000000E+00 -3.231174E-16
        85  13 -1.332196E+05 -9.773635E+04 -4.619119E+04  7.588043E+03  0.000000E+00 -1.033976E-14
        85  14 -1.409713E+05 -9.456073E+04 -4.710640E+04  8.428926E+03  1.240771E-13 -5.169879E-15
        85  15 -1.489781E+05 -9.159293E+04 -4.811420E+04  9.555953E+03  4.135903E-14  0.000000E+00
        85  16 -1.303079E+05 -1.038894E+05 -4.683946E+04  9.978625E+03  2.067952E-14 -2.584939E-15
        85  17 -1.388447E+05 -1.002261E+05 -4.781417E+04  1.082329E+04 -2.067952E-14  0.000000E+00
        85  18 -1.486794E+05 -9.714556E+04 -4.916499E+04  1.224860E+04  1.033976E-14  5.492996E-15
        85  19 -1.370932E+05 -9.073145E+04 -4.556494E+04  4.361439E+03  1.096014E-12 -1.806873E-12
        85  20 -1.438676E+05 -8.886818E+04 -4.654716E+04  5.705883E+03  1.002956E-12 -1.491510E-12
        85  21 -1.489118E+05 -8.649888E+04 -4.708214E+04  6.775700E+03  1.090844E-12 -1.566473E-12
        85  22 -1.332196E+05 -9.773635E+04 -4.619119E+04  7.588043E+03  1.571643E-12 -1.850817E-12
        85  23 -1.409713E+05 -9.456073E+04 -4.710640E+04  8.428926E+03  1.654361E-13  0.000000E+00
        85  24 -1.489781E+05 -9.159293E+04 -4.811420E+04  9.555953E+03  7.651421E-13 -1.517359E-12
        85  25 -1.303079E+05 -1.038894E+05 -4.683946E+04  9.978625E+03  1.488925E-12 -2.316106E-12
        85  26 -1.388447E+05 -1.002261E+05 -4.781417E+04  1.082329E+04  1.158053E-12 -1.840477E-12
        85  27 -1.486794E+05 -9.714556E+04 -4.916499E+04  1.224860E+04  8.065011E-13 -1.861156E-12
        86   1 -1.532683E+05 -8.449548E+04 -4.755276E+04  7.379683E+03 -1.096014E-12  1.455321E-12
        86   2 -1.576736E+05 -8.321427E+04 -4.817758E+04  8.648166E+03 -5.583469E-13  1.217506E-12
        86   3 -1.623972E+05 -8.202403E+04 -4.888425E+04  9.963264E+03 -8.607848E-13  1.309918E-12
        86   4 -1.535063E+05 -9.025920E+04 -4.875311E+04  1.050289E+04 -6.617445E-13  1.488925E-12
        86   5 -1.594258E+05 -8.899106E+04 -4.968338E+04  1.289485E+04  0.000000E+00 -2.067952E-14
        86   6 -1.661388E+05 -8.805025E+04 -5.083781E+04  1.558845E+04 -5.376674E-13  1.261450E-12
        86   7 -1.537316E+05 -9.659010E+04 -5.006435E+04  1.335209E+04 -8.271806E-13  1.819797E-12
        86   8 -1.606643E+05 -9.553331E+04 -5.123951E+04  1.662826E+04 -3.308722E-13  1.530284E-12
        86   9 -1.686399E+05 -9.492798E+04 -5.271358E+04  2.034002E+04 -6.824240E-13  1.473415E-12
        86  10 -1.532683E+05 -8.449548E+04 -4.755276E+04  7.379683E+03  2.067952E-14 -1.292470E-15
        86  11 -1.576736E+05 -8.321427E+04 -4.817758E+04  8.648166E+03  6.203855E-14  5.816114E-15
        86  12 -1.623972E+05 -8.202403E+04 -4.888425E+04  9.963264E+03  1.809458E-14  2.746498E-15
        86  13 -1.535063E+05 -9.025920E+04 -4.875311E+04  1.050289E+04 -8.271806E-14  5.169879E-15
        86  14 -1.594258E+05 -8.899106E+04 -4.968338E+04  1.289485E+04 -4.135903E-14 -5.169879E-15
        86  15 -1.661388E+05 -8.805025E+04 -5.083781E+04  1.558845E+04 -1.033976E-14 -9.047288E-15
        86  16 -1.537316E+05 -9.659010E+04 -5.006435E+04  1.335209E+04 -2.067952E-14 -1.292470E-15
        86  17 -1.606643E+05 -9.553331E+04 -5.123951E+04  1.662826E+04  1.033976E-14  6.462349E-16
        86  18 -1.686399E+05 -9.492798E+04 -5.271358E+04  2.034002E+04 -3.877409E-14  5.331438E-15
        86  19 -1.532683E+05 -8.449548E+04 -4.755276E+04  7.379683E+03  1.096014E-12 -1.460491E-12
        86  20 -1.576736E+05 -8.321427E+04 -4.817758E+04  8.648166E+03  7.237830E-13 -1.238186E-12
        86  21 -1.623972E+05 -8.202403E+04 -4.888425E+04  9.963264E+03  8.607848E-13 -1.309918E-12
        86  22 -1.535063E+05 -9.025920E+04 -4.875311E+04  1.050289E+04  6.617445E-13 -1.468246E-12
        86  23 -1.594258E+05 -8.899106E+04 -4.968338E+04  1.289485E+04  0.000000E+00 -2.067952E-14
        86  24 -1.661388E+05 -8.805025E+04 -5.083781E+04  1.558845E+04  2.067952E-13 -1.302809E-12
        86  25 -1.537316E+05 -9.659010E+04 -5.006435E+04  1.335209E+04  4.963084E-13 -1.861156E-12
        86  26 -1.606643E+05 -9.553331E+04 -5.123951E+04  1.662826E+04  3.308722E-13 -1.447566E-12
        86  27 -1.686399E+05 -9.492798E+04 -5.271358E+04  2.034002E+04  6.824240E-13 -1.473415E-12
        87   1 -1.530181E+05 -9.973976E+04 -5.055156E+04  1.485665E+04 -4.963084E-13  1.964554E-12
        87   2 -1.591531E+05 -9.871129E+04 -5.157287E+04  1.808393E+04 -5.376674E-13  1.571643E-12
        87   3 -1.679401E+05 -9.893935E+04 -5.337588E+04  2.261911E+04 -9.874469E-13  1.748712E-12
        87   4 -1.506087E+05 -1.048524E+05 -5.109222E+04  1.634748E+04 -1.654361E-13  1.778438E-12
        87   5 -1.587214E+05 -1.058765E+05 -5.291958E+04  2.103860E+04  8.271806E-14  2.481542E-13
        87   6 -1.690497E+05 -1.079384E+05 -5.539762E+04  2.680022E+04 -2.067952E-14  1.245941E-12
        87   7 -1.470524E+05 -1.108597E+05 -5.158242E+04  1.757198E+04 -3.308722E-13  2.150670E-12
        87   8 -1.570278E+05 -1.136129E+05 -5.412812E+04  2.363594E+04  1.654361E-13  1.861156E-12
        87   9 -1.689110E+05 -1.172494E+05 -5.723207E+04  3.060287E+04 -9.512577E-13  2.595279E-12
        87  10 -1.530181E+05 -9.973976E+04 -5.055156E+04  1.485665E+04 -4.135903E-14  5.169879E-15
        87  11 -1.591531E+05 -9.871129E+04 -5.157287E+04  1.808393E+04  2.067952E-14 -3.101927E-14
        87  12 -1.679401E+05 -9.893935E+04 -5.337588E+04  2.261911E+04  2.067952E-14  3.877409E-15
        87  13 -1.506087E+05 -1.048524E+05 -5.109222E+04  1.634748E+04  0.000000E+00  0.000000E+00
        87  14 -1.587214E+05 -1.058765E+05 -5.291958E+04  2.103860E+04  4.135903E-14  2.067952E-14
        87  15 -1.690497E+05 -1.079384E+05 -5.539762E+04  2.680022E+04  1.240771E-13  2.584939E-15
        87  16 -1.470524E+05 -1.108597E+05 -5.158242E+04  1.757198E+04  4.135903E-14  5.169879E-15
        87  17 -1.570278E+05 -1.136129E+05 -5.412812E+04  2.363594E+04  2.067952E-13  1.550964E-14
        87  18 -1.689110E+05 -1.172494E+05 -5.723207E+04  3.060287E+04  6.720842E-14  3.360421E-14
        87  19 -1.530181E+05 -9.973976E+04 -5.055156E+04  1.485665E+04  4.963084E-13 -1.923195E-12
        87  20 -1.591531E+05 -9.871129E+04 -5.157287E+04  1.808393E+04  5.376674E-13 -1.406207E-12
        87  21 -1.679401E+05 -9.893935E+04 -5.337588E+04  2.261911E+04  9.874469E-13 -1.914148E-12
        87  22 -1.506087E+05 -1.048524E+05 -5.109222E+04  1.634748E+04  8.271806E-13 -1.778438E-12
        87  23 -1.587214E+05 -1.058765E+05 -5.291958E+04  2.103860E+04  2.481542E-13 -8.271806E-14
        87  24 -1.690497E+05 -1.079384E+05 -5.539762E+04  2.680022E+04  3.515518E-13 -1.411377E-12
        87  25 -1.470524E+05 -1.108597E+05 -5.158242E+04  1.757198E+04  6.617445E-13 -2.150670E-12
        87  26 -1.570278E+05 -1.136129E+05 -5.412812E+04  2.363594E+04  1.158053E-12 -1.861156E-12
        87  27 -1.689110E+05 -1.172494E+05 -5.723207E+04  3.060287E+04  9.512577E-13 -2.595279E-12
        88   1 -1.286880E+05 -1.071061E+05 -4.715883E+04  1.129625E+04 -1.819797E-12  2.349710E-12
        88   2 -1.379577E+05 -1.035238E+05 -4.829630E+04  1.198585E+04 -1.096014E-12  1.937412E-12
        88   3 -1.482939E+05 -1.006913E+05 -4.979704E+04  1.365249E+04 -1.090844E-12  2.011083E-12
        88   4 -1.263928E+05 -1.118056E+05 -4.763966E+04  1.329454E+04 -1.819797E-12  2.295426E-12
        88   5 -1.351819E+05 -1.081990E+05 -4.867618E+04  1.338842E+04 -1.654361E-13 -5.169879E-15
        88   6 -1.457808E+05 -1.055171E+05 -5.025958E+04  1.449885E+04 -9.512577E-13  1.942582E-12
        88   7 -1.244964E+05 -1.159956E+05 -4.809840E+04  1.494016E+04 -1.323489E-12  2.709017E-12
        88   8 -1.328670E+05 -1.123917E+05 -4.905173E+04  1.468039E+04 -9.926167E-13  2.129990E-12
        88   9 -1.435717E+05 -1.098359E+05 -5.068151E+04  1.546508E+04 -5.376674E-13  2.013668E-12
        88  10 -1.286880E+05 -1.071061E+05 -4.715883E+04  1.129625E+04  4.135903E-14 -5.169879E-15
        88  11 -1.379577E+05 -1.035238E+05 -4.829630E+04  1.198585E+04 -4.135903E-14  2.584939E-15
        88  12 -1.482939E+05 -1.006913E+05 -4.979704E+04  1.365249E+04  2.584939E-14  1.033976E-14
        88  13 -1.263928E+05 -1.118056E+05 -4.763966E+04  1.329454E+04  0.000000E+00  1.033976E-14
        88  14 -1.351819E+05 -1.081990E+05 -4.867618E+04  1.338842E+04  4.135903E-14  1.033976E-14
        88  15 -1.457808E+05 -1.055171E+05 -5.025958E+04  1.449885E+04  3.101927E-14 -6.462349E-15
        88  16 -1.244964E+05 -1.159956E+05 -4.809840E+04  1.494016E+04 -4.135903E-14 -5.169879E-15
        88  17 -1.328670E+05 -1.123917E+05 -4.905173E+04  1.468039E+04 -2.067952E-14  2.584939E-15
        88  18 -1.435717E+05 -1.098359E+05 -5.068151E+04  1.546508E+04 -3.618915E-14 -9.693523E-15
        88  19 -1.286880E+05 -1.071061E+05 -4.715883E+04  1.129625E+04  1.819797E-12 -2.370389E-12
        88  20 -1.379577E+05 -1.035238E+05 -4.829630E+04  1.198585E+04  7.651421E-13 -1.937412E-12
        88  21 -1.482939E+05 -1.006913E+05 -4.979704E+04  1.365249E+04  1.090844E-12 -1.928365E-12
        88  22 -1.263928E+05 -1.118056E+05 -4.763966E+04  1.329454E+04  1.158053E-12 -2.295426E-12
        88  23 -1.351819E+05 -1.081990E+05 -4.867618E+04  1.338842E+04  1.654361E-13  5.169879E-15
        88  24 -1.457808E+05 -1.055171E+05 -5.025958E+04  1.449885E+04  6.203855E-13 -1.818505E-12
        88  25 -1.244964E+05 -1.159956E+05 -4.809840E+04  1.494016E+04  1.323489E-12 -2.709017E-12
        88  26 -1.328670E+05 -1.123917E+05 -4.905173E+04  1.468039E+04  3.308722E-13 -2.171349E-12
        88  27 -1.435717E+05 -1.098359E+05 -5.068151E+04  1.546508E+04  5.376674E-13 -2.013668E-12
        89   1 -2.008648E+05 -2.499998E+05 -9.017292E+04  1.598548E+05  9.926167E-13 -4.963084E-12
        89   2 -1.942689E+05 -2.368881E+05 -8.623139E+04  1.732936E+05 -5.376674E-13 -3.143286E-12
        89   3 -1.777160E+05 -2.221175E+05 -7.996670E+04  1.824095E+05  5.583469E-13 -2.274747E-12
        89   4 -1.785564E+05 -2.518290E+05 -8.607709E+04  1.664542E+05 -3.308722E-13 -7.940934E-12
        89   5 -1.673152E+05 -2.417081E+05 -8.180466E+04  1.692300E+05 -1.819797E-12  5.293956E-12
        89   6 -1.445203E+05 -2.300812E+05 -7.492030E+04  1.663763E+05  2.067952E-12 -3.308722E-13
        89   7 -1.858639E+05 -2.621675E+05 -8.960628E+04  1.686146E+05  6.617445E-13  2.646978E-12
        89   8 -1.738610E+05 -2.560663E+05 -8.598546E+04  1.603335E+05 -1.985233E-12 -5.293956E-12
        89   9 -1.493216E+05 -2.487586E+05 -7.961604E+04  1.450941E+05  1.902515E-12 -5.293956E-12
        89  10 -2.008648E+05 -2.499998E+05 -9.017292E+04  1.598548E+05  0.000000E+00  0.000000E+00
        89  11 -1.942689E+05 -2.368881E+05 -8.623139E+04  1.732936E+05  4.135903E-14 -3.308722E-13
        89  12 -1.777160E+05 -2.221175E+05 -7.996670E+04  1.824095E+05 -2.067952E-14  5.790264E-13
        89  13 -1.785564E+05 -2.518290E+05 -8.607709E+04  1.664542E+05  0.000000E+00 -1.323489E-12
        89  14 -1.673152E+05 -2.417081E+05 -8.180466E+04  1.692300E+05 -3.308722E-13 -6.617445E-13
        89  15 -1.445203E+05 -2.300812E+05 -7.492030E+04  1.663763E+05 -3.515518E-13  1.158053E-12
        89  16 -1.858639E+05 -2.621675E+05 -8.960628E+04  1.686146E+05 -8.271806E-14  0.000000E+00
        89  17 -1.738610E+05 -2.560663E+05 -8.598546E+04  1.603335E+05 -2.895132E-13 -1.654361E-13
        89  18 -1.493216E+05 -2.487586E+05 -7.961604E+04  1.450941E+05  1.240771E-13  6.203855E-13
        89  19 -2.008648E+05 -2.499998E+05 -9.017292E+04  1.598548E+05 -9.926167E-13  2.316106E-12
        89  20 -1.942689E+05 -2.368881E+05 -8.623139E+04  1.732936E+05 -2.771055E-12  8.437242E-12
        89  21 -1.777160E+05 -2.221175E+05 -7.996670E+04  1.824095E+05 -5.583469E-13  2.274747E-12
        89  22 -1.785564E+05 -2.518290E+05 -8.607709E+04  1.664542E+05 -3.308722E-13  0.000000E+00
        89  23 -1.673152E+05 -2.417081E+05 -8.180466E+04  1.692300E+05  4.963084E-13 -2.646978E-12
        89  24 -1.445203E+05 -2.300812E+05 -7.492030E+04  1.663763E+05  5.790264E-13 -4.963084E-12
        89  25 -1.858639E+05 -2.621675E+05 -8.960628E+04  1.686146E+05 -6.617445E-13 -2.646978E-12
        89  26 -1.738610E+05 -2.560663E+05 -8.598546E+04  1.603335E+05  6.617445E-13  0.000000E+00
        89  27 -1.493216E+05 -2.487586E+05 -7.961604E+04  1.450941E+05 -1.902515E-12  5.293956E-12
        90   1 -1.318464E+05 -2.107564E+05 -6.852056E+04  1.832401E+05  0.000000E+00  0.000000E+00
        90   2 -4.753617E+04 -2.118331E+05 -5.187385E+04  1.837940E+05  3.308722E-13 -3.143286E-12
        90   3  6.970868E+04 -2.382656E+05 -3.371139E+04  1.765737E+05 -1.344168E-12  4.384057E-12
        90   4 -1.556454E+05 -2.302754E+05 -7.718416E+04  1.563320E+05  1.985233E-12  0.000000E+00
        90   5 -1.346187E+05 -2.244131E+05 -7.180637E+04  1.546717E+05 -1.323489E-12  3.970467E-12
        90   6 -9.069509E+04 -2.409312E+05 -6.632525E+04  1.459397E+05  3.970467E-12 -8.271806E-12
        90   7 -1.394413E+05 -2.354187E+05 -7.497202E+04  1.414816E+05 -1.323489E-12  0.000000E+00
        90   8 -1.728721E+05 -2.199649E+05 -7.856740E+04  1.399447E+05  2.646978E-12 -1.323489E-11
        90   9 -1.915039E+05 -2.235369E+05 -8.300816E+04  1.324383E+05  3.308722E-13  1.323489E-12
        90  10 -1.318464E+05 -2.107564E+05 -6.852056E+04  1.832401E+05  0.000000E+00 -9.926167E-13
        90  11 -4.753617E+04 -2.118331E+05 -5.187385E+04  1.837940E+05 -2.481542E-13 -3.308722E-13
        90  12  6.970868E+04 -2.382656E+05 -3.371139E+04  1.765737E+05 -1.240771E-13 -1.240771E-13
        90  13 -1.556454E+05 -2.302754E+05 -7.718416E+04  1.563320E+05  3.308722E-13  1.323489E-12
        90  14 -1.346187E+05 -2.244131E+05 -7.180637E+04  1.546717E+05 -1.654361E-13 -6.617445E-13
        90  15 -9.069509E+04 -2.409312E+05 -6.632525E+04  1.459397E+05  4.963084E-13 -6.617445E-13
        90  16 -1.394413E+05 -2.354187E+05 -7.497202E+04  1.414816E+05  0.000000E+00  6.617445E-13
        90  17 -1.728721E+05 -2.199649E+05 -7.856740E+04  1.399447E+05  9.926167E-13 -9.926167E-13
        90  18 -1.915039E+05 -2.235369E+05 -8.300816E+04  1.324383E+05 -3.929108E-13  4.135903E-14
        90  19 -1.318464E+05 -2.107564E+05 -6.852056E+04  1.832401E+05  0.000000E+00  5.293956E-12
        90  20 -4.753617E+04 -2.118331E+05 -5.187385E+04  1.837940E+05  9.926167E-13  8.437242E-12
        90  21  6.970868E+04 -2.382656E+05 -3.371139E+04  1.765737E+05 -1.302809E-12  9.098987E-13
        90  22 -1.556454E+05 -2.302754E+05 -7.718416E+04  1.563320E+05  6.617445E-13  0.000000E+00
        90  23 -1.346187E+05 -2.244131E+05 -7.180637E+04  1.546717E+05  2.646978E-12 -9.264423E-12
        90  24 -9.069509E+04 -2.409312E+05 -6.632525E+04  1.459397E+05 -1.323489E-12  2.977850E-12
        90  25 -1.394413E+05 -2.354187E+05 -7.497202E+04  1.414816E+05  0.000000E+00  0.000000E+00
        90  26 -1.728721E+05 -2.199649E+05 -7.856740E+04  1.399447E+05 -2.646978E-12 -2.646978E-12
        90  27 -1.915039E+05 -2.235369E+05 -8.300816E+04  1.324383E+05 -3.308722E-13 -1.323489E-12
        91   1 -1.598249E+05 -2.282884E+05 -7.762267E+04  1.456483E+05  1.654361E-13 -5.624828E-12
        91   2 -1.766555E+05 -2.292081E+05 -8.117273E+04  1.309731E+05  3.639595E-12 -1.472381E-11
        91   3 -2.004779E+05 -2.338491E+05 -8.686539E+04  1.207623E+05  1.716400E-12 -8.147729E-12
        91   4 -2.079375E+05 -2.278082E+05 -8.714914E+04  1.392210E+05  1.323489E-12  2.646978E-12
        91   5 -2.200136E+05 -2.263483E+05 -8.927237E+04  1.296992E+05  1.654361E-12  4.632211E-12
        91   6 -2.392912E+05 -2.283968E+05 -9.353759E+04  1.253037E+05  2.398824E-12 -5.293956E-12
        91   7 -2.437821E+05 -2.238843E+05 -9.353328E+04  1.344528E+05  2.646978E-12 -2.646978E-12
        91   8 -2.494904E+05 -2.196377E+05 -9.382562E+04  1.301989E+05  7.279189E-12 -6.617445E-12
        91   9 -2.623233E+05 -2.186229E+05 -9.618926E+04  1.317315E+05  5.128520E-12  6.617445E-13
        91  10 -1.598249E+05 -2.282884E+05 -7.762267E+04  1.456483E+05 -1.654361E-13  0.000000E+00
        91  11 -1.766555E+05 -2.292081E+05 -8.117273E+04  1.309731E+05 -1.654361E-13 -4.963084E-13
        91  12 -2.004779E+05 -2.338491E+05 -8.686539E+04  1.207623E+05  1.861156E-13  9.926167E-13
        91  13 -2.079375E+05 -2.278082E+05 -8.714914E+04  1.392210E+05 -3.308722E-13  0.000000E+00
        91  14 -2.200136E+05 -2.263483E+05 -8.927237E+04  1.296992E+05  8.271806E-13 -1.323489E-12
        91  15 -2.392912E+05 -2.283968E+05 -9.353759E+04  1.253037E+05 -4.135903E-14  1.488925E-12
        91  16 -2.437821E+05 -2.238843E+05 -9.353328E+04  1.344528E+05  1.654361E-13 -1.323489E-12
        91  17 -2.494904E+05 -2.196377E+05 -9.382562E+04  1.301989E+05  2.481542E-13  1.158053E-12
        91  18 -2.623233E+05 -2.186229E+05 -9.618926E+04  1.317315E+05 -1.240771E-13 -1.654361E-13
        91  19 -1.598249E+05 -2.282884E+05 -7.762267E+04  1.456483E+05 -1.654361E-13  3.308722E-13
        91  20 -1.766555E+05 -2.292081E+05 -8.117273E+04  1.309731E+05 -2.316106E-12  9.429859E-12
        91  21 -2.004779E+05 -2.338491E+05 -8.686539E+04  1.207623E+05 -3.929108E-13  1.344168E-11
        91  22 -2.079375E+05 -2.278082E+05 -8.714914E+04  1.392210E+05 -1.323489E-12  1.058791E-11
        91  23 -2.200136E+05 -2.263483E+05 -8.927237E+04  1.296992E+05 -1.654361E-12  6.617445E-13
        91  24 -2.392912E+05 -2.283968E+05 -9.353759E+04  1.253037E+05 -2.398824E-12  5.293956E-12
        91  25 -2.437821E+05 -2.238843E+05 -9.353328E+04  1.344528E+05 -1.323489E-12  2.646978E-12
        91  26 -2.494904E+05 -2.196377E+05 -9.382562E+04  1.301989E+05 -3.308722E-12  6.617445E-12
        91  27 -2.623233E+05 -2.186229E+05 -9.618926E+04  1.317315E+05 -2.481542E-12 -6.617445E-13
        92   1 -1.910172E+05 -2.541450E+05 -8.903244E+04  1.625474E+05  0.000000E+00 -3.308722E-13
        92   2 -1.886947E+05 -2.470384E+05 -8.714661E+04  1.553947E+05  4.963084E-13  2.316106E-12
        92   3 -1.839238E+05 -2.396489E+05 -8.471455E+04  1.467594E+05  2.667657E-12 -1.654361E-12
        92   4 -2.137103E+05 -2.458364E+05 -9.190933E+04  1.621043E+05  0.000000E+00  0.000000E+00
        92   5 -2.123001E+05 -2.394022E+05 -9.034046E+04  1.532655E+05 -3.639595E-12  7.940934E-12
        92   6 -2.085130E+05 -2.327393E+05 -8.825046E+04  1.427572E+05 -8.271806E-13 -9.926167E-12
        92   7 -2.391888E+05 -2.381165E+05 -9.546105E+04  1.616151E+05  2.646978E-12 -5.293956E-12
        92   8 -2.391139E+05 -2.324724E+05 -9.431727E+04  1.510600E+05  3.970467E-12  6.617445E-12
        92   9 -2.367917E+05 -2.266690E+05 -9.269212E+04  1.386491E+05  6.617445E-13 -1.985233E-12
        92  10 -1.910172E+05 -2.541450E+05 -8.903244E+04  1.625474E+05  1.654361E-13  0.000000E+00
        92  11 -1.886947E+05 -2.470384E+05 -8.714661E+04  1.553947E+05  0.000000E+00 -3.308722E-13
        92  12 -1.839238E+05 -2.396489E+05 -8.471455E+04  1.467594E+05 -2.895132E-13  1.654361E-13
        92  13 -2.137103E+05 -2.458364E+05 -9.190933E+04  1.621043E+05  3.308722E-13  0.000000E+00
        92  14 -2.123001E+05 -2.394022E+05 -9.034046E+04  1.532655E+05  4.963084E-13 -3.308722E-12
        92  15 -2.085130E+05 -2.327393E+05 -8.825046E+04  1.427572E+05  1.654361E-13 -2.233388E-12
        92  16 -2.391888E+05 -2.381165E+05 -9.546105E+04  1.616151E+05  0.000000E+00 -3.308722E-13
        92  17 -2.391139E+05 -2.324724E+05 -9.431727E+04  1.510600E+05 -4.135903E-13  9.926167E-13
        92  18 -2.367917E+05 -2.266690E+05 -9.269212E+04  1.386491E+05  0.000000E+00  4.549493E-13
        92  19 -1.910172E+05 -2.541450E+05 -8.903244E+04  1.625474E+05 -2.646978E-12  2.977850E-12
        92  20 -1.886947E+05 -2.470384E+05 -8.714661E+04  1.553947E+05 -4.963084E-13  8.271806E-12
        92  21 -1.839238E+05 -2.396489E+05 -8.471455E+04  1.467594E+05 -2.067952E-14  4.301339E-12
        92  22 -2.137103E+05 -2.458364E+05 -9.190933E+04  1.621043E+05 -1.323489E-12  2.646978E-12
        92  23 -2.123001E+05 -2.394022E+05 -9.034046E+04  1.532655E+05  2.316106E-12 -2.646978E-12
        92  24 -2.085130E+05 -2.327393E+05 -8.825046E+04  1.427572E+05 -1.819797E-12  4.632211E-12
        92  25 -2.391888E+05 -2.381165E+05 -9.546105E+04  1.616151E+05 -1.323489E-12  5.293956E-12
        92  26 -2.391139E+05 -2.324724E+05 -9.431727E+04  1.510600E+05  0.000000E+00  6.617445E-12
        92  27 -2.367917E+05 -2.266690E+05 -9.269212E+04  1.386491E+05 -6.617445E-13 -5.955700E-12
        93   1 -1.655480E+05 -1.133419E+05 -5.577799E+04  7.505651E+02  1.124966E-11 -3.441071E-11
        93   2 -1.629633E+05 -1.124244E+05 -5.507753E+04  1.142314E+03  2.018321E-11 -5.691003E-11
        93   3 -1.609739E+05 -1.116120E+05 -5.451718E+04  1.508377E+03  7.031035E-12  4.069729E-11
        93   4 -1.737650E+05 -1.155709E+05 -5.786718E+04  2.020656E+03  1.323489E-11  0.000000E+00
        93   5 -1.714391E+05 -1.143709E+05 -5.716199E+04  3.025161E+03  1.058791E-11  2.646978E-11
        93   6 -1.694370E+05 -1.132313E+05 -5.653365E+04  3.993130E+03  2.613891E-11  0.000000E+00
        93   7 -1.815160E+05 -1.177061E+05 -5.984441E+04  3.721358E+03  0.000000E+00 -4.235165E-11
        93   8 -1.795527E+05 -1.163335E+05 -5.917725E+04  5.165142E+03 -5.293956E-12 -3.176374E-11
        93   9 -1.777047E+05 -1.149808E+05 -5.853710E+04  6.575943E+03  1.588187E-11 -2.382280E-11
        93  10 -1.655480E+05 -1.133419E+05 -5.577799E+04  7.505651E+02  1.323489E-12  0.000000E+00
        93  11 -1.629633E+05 -1.124244E+05 -5.507753E+04  1.142314E+03 -3.308722E-12  7.940934E-12
        93  12 -1.609739E+05 -1.116120E+05 -5.451718E+04  1.508377E+03  3.308722E-13 -2.977850E-12
        93  13 -1.737650E+05 -1.155709E+05 -5.786718E+04  2.020656E+03  0.000000E+00  5.293956E-12
        93  14 -1.714391E+05 -1.143709E+05 -5.716199E+04  3.025161E+03  2.646978E-12 -1.058791E-11
        93  15 -1.694370E+05 -1.132313E+05 -5.653365E+04  3.993130E+03  1.985233E-12 -2.646978E-12
        93  16 -1.815160E+05 -1.177061E+05 -5.984441E+04  3.721358E+03  0.000000E+00 -2.646978E-12
        93  17 -1.795527E+05 -1.163335E+05 -5.917725E+04  5.165142E+03  6.617445E-13 -2.646978E-12
        93  18 -1.777047E+05 -1.149808E+05 -5.853710E+04  6.575943E+03 -6.617445E-13  5.293956E-12
        93  19 -1.655480E+05 -1.133419E+05 -5.577799E+04  7.505651E+02  9.926167E-12  1.323489E-11
        93  20 -1.629633E+05 -1.124244E+05 -5.507753E+04  1.142314E+03 -2.018321E-11 -6.617445E-12
        93  21 -1.609739E+05 -1.116120E+05 -5.451718E+04  1.508377E+03 -2.820686E-11 -1.952146E-11
        93  22 -1.737650E+05 -1.155709E+05 -5.786718E+04  2.020656E+03 -1.323489E-11  2.117582E-11
        93  23 -1.714391E+05 -1.143709E+05 -5.716199E+04  3.025161E+03  0.000000E+00 -2.646978E-11
        93  24 -1.694370E+05 -1.132313E+05 -5.653365E+04  3.993130E+03  5.624828E-12  2.117582E-11
        93  25 -1.815160E+05 -1.177061E+05 -5.984441E+04  3.721358E+03 -1.058791E-11 -2.117582E-11
        93  26 -1.795527E+05 -1.163335E+05 -5.917725E+04  5.165142E+03  5.293956E-12 -3.176374E-11
        93  27 -1.777047E+05 -1.149808E+05 -5.853710E+04  6.575943E+03 -5.293956E-12  2.646978E-12
        94   1 -1.597077E+05 -1.110187E+05 -5.414528E+04  1.886034E+03  3.044025E-11  1.058791E-11
        94   2 -1.576593E+05 -1.101395E+05 -5.355975E+04  2.615120E+03  3.970467E-12 -9.264423E-12
        94   3 -1.561582E+05 -1.093438E+05 -5.310040E+04  3.297679E+03  7.444626E-13 -4.268252E-11
        94   4 -1.686038E+05 -1.128344E+05 -5.628765E+04  4.366175E+03  1.058791E-11  3.176374E-11
        94   5 -1.663646E+05 -1.113558E+05 -5.554407E+04  5.569504E+03  0.000000E+00  1.058791E-11
        94   6 -1.644254E+05 -1.099327E+05 -5.487162E+04  6.737620E+03  2.183757E-11 -2.382280E-11
        94   7 -1.766737E+05 -1.136434E+05 -5.806342E+04  7.399080E+03  5.293956E-12  0.000000E+00
        94   8 -1.745335E+05 -1.118129E+05 -5.726928E+04  8.897195E+03  5.293956E-12  2.117582E-11
        94   9 -1.724869E+05 -1.100012E+05 -5.649763E+04  1.037978E+04  3.308722E-12  7.940934E-12
        94  10 -1.597077E+05 -1.110187E+05 -5.414528E+04  1.886034E+03  1.323489E-12  0.000000E+00
        94  11 -1.576593E+05 -1.101395E+05 -5.355975E+04  2.615120E+03 -6.617445E-13  7.940934E-12
        94  12 -1.561582E+05 -1.093438E+05 -5.310040E+04  3.297679E+03 -9.926167E-13  3.308722E-13
        94  13 -1.686038E+05 -1.128344E+05 -5.628765E+04  4.366175E+03  2.646978E-12  5.293956E-12
        94  14 -1.663646E+05 -1.113558E+05 -5.554407E+04  5.569504E+03 -3.970467E-12  1.058791E-11
        94  15 -1.644254E+05 -1.099327E+05 -5.487162E+04  6.737620E+03 -3.308722E-13  1.191140E-11
        94  16 -1.766737E+05 -1.136434E+05 -5.806342E+04  7.399080E+03  0.000000E+00  0.000000E+00
        94  17 -1.745335E+05 -1.118129E+05 -5.726928E+04  8.897195E+03  1.323489E-12 -2.646978E-12
        94  18 -1.724869E+05 -1.100012E+05 -5.649763E+04  1.037978E+04 -1.158053E-12  2.316106E-12
        94  19 -1.597077E+05 -1.110187E+05 -5.414528E+04  1.886034E+03 -1.985233E-11 -1.058791E-11
        94  20 -1.576593E+05 -1.101395E+05 -5.355975E+04  2.615120E+03  6.617445E-12  9.264423E-12
        94  21 -1.561582E+05 -1.093438E+05 -5.310040E+04  3.297679E+03 -1.133237E-11  2.150670E-11
        94  22 -1.686038E+05 -1.128344E+05 -5.628765E+04  4.366175E+03  0.000000E+00 -3.176374E-11
        94  23 -1.663646E+05 -1.113558E+05 -5.554407E+04  5.569504E+03  1.058791E-11 -5.293956E-11
        94  24 -1.644254E+05 -1.099327E+05 -5.487162E+04  6.737620E+03 -1.124966E-11  4.499863E-11
        94  25 -1.766737E+05 -1.136434E+05 -5.806342E+04  7.399080E+03 -5.293956E-12  0.000000E+00
        94  26 -1.745335E+05 -1.118129E+05 -5.726928E+04  8.897195E+03 -5.293956E-12 -2.117582E-11
        94  27 -1.724869E+05 -1.100012E+05 -5.649763E+04  1.037978E+04  7.279189E-12 -7.940934E-12
        95   1 -1.810642E+05 -1.142248E+05 -5.905781E+04  9.451152E+03  2.646978E-12 -2.117582E-11
        95   2 -1.793501E+05 -1.122910E+05 -5.832822E+04  1.145511E+04  1.455838E-11 -6.220398E-11
        95   3 -1.774118E+05 -1.102756E+05 -5.753748E+04  1.331226E+04 -7.940934E-12  6.286573E-12
        95   4 -1.886185E+05 -1.153617E+05 -6.079604E+04  1.386928E+04  1.588187E-11  4.235165E-11
        95   5 -1.865940E+05 -1.127511E+05 -5.986903E+04  1.588058E+04  7.940934E-12  4.235165E-11
        95   6 -1.842695E+05 -1.100572E+05 -5.886534E+04  1.780183E+04  1.522012E-11 -5.161607E-11
        95   7 -1.962191E+05 -1.156853E+05 -6.238088E+04  1.837428E+04  5.293956E-12  2.117582E-11
        95   8 -1.940200E+05 -1.125780E+05 -6.131961E+04  2.035321E+04  1.588187E-11 -3.176374E-11
        95   9 -1.914525E+05 -1.093773E+05 -6.016597E+04  2.229043E+04  1.058791E-11 -1.058791E-11
        95  10 -1.810642E+05 -1.142248E+05 -5.905781E+04  9.451152E+03  1.323489E-12 -2.646978E-12
        95  11 -1.793501E+05 -1.122910E+05 -5.832822E+04  1.145511E+04  1.985233E-12  9.264423E-12
        95  12 -1.774118E+05 -1.102756E+05 -5.753748E+04  1.331226E+04 -8.271806E-13 -2.316106E-12
        95  13 -1.886185E+05 -1.153617E+05 -6.079604E+04  1.386928E+04  0.000000E+00 -1.058791E-11
        95  14 -1.865940E+05 -1.127511E+05 -5.986903E+04  1.588058E+04  1.323489E-12  1.058791E-11
        95  15 -1.842695E+05 -1.100572E+05 -5.886534E+04  1.780183E+04  1.985233E-12 -7.940934E-12
        95  16 -1.962191E+05 -1.156853E+05 -6.238088E+04  1.837428E+04  2.646978E-12  5.293956E-12
        95  17 -1.940200E+05 -1.125780E+05 -6.131961E+04  2.035321E+04 -4.632211E-12  3.970467E-12
        95  18 -1.914525E+05 -1.093773E+05 -6.016597E+04  2.229043E+04  1.819797E-12  2.316106E-12
        95  19 -1.810642E+05 -1.142248E+05 -5.905781E+04  9.451152E+03 -2.646978E-12  2.117582E-11
        95  20 -1.793501E+05 -1.122910E+05 -5.832822E+04  1.145511E+04 -3.970467E-12  1.985233E-11
        95  21 -1.774118E+05 -1.102756E+05 -5.753748E+04  1.331226E+04 -2.646978E-12  1.488925E-11
        95  22 -1.886185E+05 -1.153617E+05 -6.079604E+04  1.386928E+04 -5.293956E-12  0.000000E+00
        95  23 -1.865940E+05 -1.127511E+05 -5.986903E+04  1.588058E+04  2.382280E-11 -4.235165E-11
        95  24 -1.842695E+05 -1.100572E+05 -5.886534E+04  1.780183E+04 -3.639595E-11 -1.191140E-11
        95  25 -1.962191E+05 -1.156853E+05 -6.238088E+04  1.837428E+04 -1.588187E-11  0.000000E+00
        95  26 -1.940200E+05 -1.125780E+05 -6.131961E+04  2.035321E+04 -2.646978E-11  1.058791E-11
        95  27 -1.914525E+05 -1.093773E+05 -6.016597E+04  2.229043E+04  1.058791E-11  3.176374E-11
        96   1 -1.866944E+05 -1.193333E+05 -6.120554E+04  5.143362E+03  5.293956E-12 -4.499863E-11
        96   2 -1.843009E+05 -1.174822E+05 -6.035662E+04  6.884478E+03  1.455838E-11  1.058791E-11
        96   3 -1.822335E+05 -1.156581E+05 -5.957832E+04  8.334238E+03  6.369291E-12  4.102816E-11
        96   4 -1.939716E+05 -1.220601E+05 -6.320635E+04  7.881188E+03  1.058791E-11 -1.058791E-11
        96   5 -1.920109E+05 -1.194091E+05 -6.228400E+04  1.027365E+04 -7.940934E-12  4.235165E-11
        96   6 -1.901543E+05 -1.167610E+05 -6.138305E+04  1.243322E+04  1.985233E-12 -9.264423E-12
        96   7 -2.009462E+05 -1.247799E+05 -6.514523E+04  1.090311E+04  1.588187E-11  0.000000E+00
        96   8 -1.994851E+05 -1.215109E+05 -6.419919E+04  1.382720E+04  0.000000E+00  3.176374E-11
        96   9 -1.979455E+05 -1.182160E+05 -6.323231E+04  1.657158E+04 -4.632211E-12 -7.940934E-12
        96  10 -1.866944E+05 -1.193333E+05 -6.120554E+04  5.143362E+03 -1.323489E-12  0.000000E+00
        96  11 -1.843009E+05 -1.174822E+05 -6.035662E+04  6.884478E+03 -1.323489E-12 -1.323489E-12
        96  12 -1.822335E+05 -1.156581E+05 -5.957832E+04  8.334238E+03 -1.488925E-12  6.617445E-13
        96  13 -1.939716E+05 -1.220601E+05 -6.320635E+04  7.881188E+03 -2.646978E-12 -5.293956E-12
        96  14 -1.920109E+05 -1.194091E+05 -6.228400E+04  1.027365E+04 -1.323489E-12 -5.293956E-12
        96  15 -1.901543E+05 -1.167610E+05 -6.138305E+04  1.243322E+04  0.000000E+00 -2.646978E-12
        96  16 -2.009462E+05 -1.247799E+05 -6.514523E+04  1.090311E+04  0.000000E+00  2.646978E-12
        96  17 -1.994851E+05 -1.215109E+05 -6.419919E+04  1.382720E+04  0.000000E+00 -5.293956E-12
        96  18 -1.979455E+05 -1.182160E+05 -6.323231E+04  1.657158E+04 -1.654361E-13 -5.293956E-12
        96  19 -1.866944E+05 -1.193333E+05 -6.120554E+04  5.143362E+03 -5.293956E-12  2.382280E-11
        96  20 -1.843009E+05 -1.174822E+05 -6.035662E+04  6.884478E+03 -1.455838E-11 -1.058791E-11
        96  21 -1.822335E+05 -1.156581E+05 -5.957832E+04  8.334238E+03 -1.695720E-11 -1.985233E-11
        96  22 -1.939716E+05 -1.220601E+05 -6.320635E+04  7.881188E+03  0.000000E+00  3.176374E-11
        96  23 -1.920109E+05 -1.194091E+05 -6.228400E+04  1.027365E+04  7.940934E-12  2.117582E-11
        96  24 -1.901543E+05 -1.167610E+05 -6.138305E+04  1.243322E+04 -1.257315E-11  3.044025E-11
        96  25 -2.009462E+05 -1.247799E+05 -6.514523E+04  1.090311E+04 -5.293956E-12  2.117582E-11
        96  26 -1.994851E+05 -1.215109E+05 -6.419919E+04  1.382720E+04  0.000000E+00  1.058791E-11
        96  27 -1.979455E+05 -1.182160E+05 -6.323231E+04  1.657158E+04 -5.955700E-12 -1.323489E-11
        97   1 -1.508453E+05 -1.085141E+05 -5.187188E+04  1.650485E+03 -4.632211E-12 -3.705769E-11
        97   2 -1.528936E+05 -1.093136E+05 -5.244146E+04  1.361458E+03  1.786710E-11 -4.896909E-11
        97   3 -1.548763E+05 -1.100964E+05 -5.299453E+04  1.064544E+03  1.654361E-13 -2.249931E-11
        97   4 -1.415877E+05 -1.074935E+05 -4.981623E+04  6.395951E+02  0.000000E+00 -1.058791E-11
        97   5 -1.442435E+05 -1.082548E+05 -5.049965E+04  3.307761E+02 -2.646978E-12 -2.117582E-11
        97   6 -1.469387E+05 -1.090191E+05 -5.119155E+04  2.351256E+01  1.323489E-12  1.191140E-11
        97   7 -1.323131E+05 -1.060864E+05 -4.767988E+04 -4.243128E+02  0.000000E+00  4.235165E-11
        97   8 -1.355145E+05 -1.067712E+05 -4.845714E+04 -6.836232E+02 -1.588187E-11  0.000000E+00
        97   9 -1.388490E+05 -1.074717E+05 -4.926415E+04 -9.192249E+02 -1.522012E-11 -4.499863E-11
        97  10 -1.508453E+05 -1.085141E+05 -5.187188E+04  1.650485E+03 -1.323489E-12  0.000000E+00
        97  11 -1.528936E+05 -1.093136E+05 -5.244146E+04  1.361458E+03  1.323489E-12  1.323489E-12
        97  12 -1.548763E+05 -1.100964E+05 -5.299453E+04  1.064544E+03  1.819797E-12  3.308722E-12
        97  13 -1.415877E+05 -1.074935E+05 -4.981623E+04  6.395951E+02 -2.646978E-12  1.058791E-11
        97  14 -1.442435E+05 -1.082548E+05 -5.049965E+04  3.307761E+02  0.000000E+00  2.117582E-11
        97  15 -1.469387E+05 -1.090191E+05 -5.119155E+04  2.351256E+01  3.308722E-12  7.940934E-12
        97  16 -1.323131E+05 -1.060864E+05 -4.767988E+04 -4.243128E+02  0.000000E+00 -2.646978E-12
        97  17 -1.355145E+05 -1.067712E+05 -4.845714E+04 -6.836232E+02  0.000000E+00  1.323489E-12
        97  18 -1.388490E+05 -1.074717E+05 -4.926415E+04 -9.192249E+02  6.617445E-13  5.955700E-12
        97  19 -1.508453E+05 -1.085141E+05 -5.187188E+04  1.650485E+03 -5.955700E-12  1.588187E-11
        97  20 -1.528936E+05 -1.093136E+05 -5.244146E+04  1.361458E+03 -7.279189E-12 -1.455838E-11
        97  21 -1.548763E+05 -1.100964E+05 -5.299453E+04  1.064544E+03 -1.075335E-11  1.323489E-12
        97  22 -1.415877E+05 -1.074935E+05 -4.981623E+04  6.395951E+02  0.000000E+00  1.058791E-11
        97  23 -1.442435E+05 -1.082548E+05 -5.049965E+04  3.307761E+02 -7.940934E-12 -2.117582E-11
        97  24 -1.469387E+05 -1.090191E+05 -5.119155E+04  2.351256E+01 -1.191140E-11 -5.426305E-11
        97  25 -1.323131E+05 -1.060864E+05 -4.767988E+04 -4.243128E+02 -1.058791E-11 -2.117582E-11
        97  26 -1.355145E+05 -1.067712E+05 -4.845714E+04 -6.836232E+02  5.293956E-12  4.235165E-11
        97  27 -1.388490E+05 -1.074717E+05 -4.926415E+04 -9.192249E+02  1.522012E-11  2.646978E-12
        98   1 -1.562254E+05 -1.109091E+05 -5.342690E+04  7.549886E+02  1.985233E-12  1.323489E-11
        98   2 -1.581898E+05 -1.115847E+05 -5.395492E+04  5.502390E+02  1.522012E-11  6.617445E-12
        98   3 -1.599820E+05 -1.122362E+05 -5.444366E+04  3.504263E+02 -7.610062E-12  1.323489E-12
        98   4 -1.485291E+05 -1.095245E+05 -5.161072E+04 -1.265485E+02  1.588187E-11  6.352747E-11
        98   5 -1.512504E+05 -1.104204E+05 -5.233416E+04 -3.208092E+02  0.000000E+00 -1.058791E-11
        98   6 -1.539625E+05 -1.113580E+05 -5.306410E+04 -4.816236E+02  9.264423E-12  2.779327E-11
        98   7 -1.408692E+05 -1.080809E+05 -4.979002E+04 -1.064387E+03  0.000000E+00 -6.352747E-11
        98   8 -1.442982E+05 -1.092280E+05 -5.070524E+04 -1.181314E+03  2.117582E-11 -5.293956E-11
        98   9 -1.478691E+05 -1.104902E+05 -5.167185E+04 -1.220225E+03 -1.124966E-11 -3.176374E-11
        98  10 -1.562254E+05 -1.109091E+05 -5.342690E+04  7.549886E+02  0.000000E+00 -5.293956E-12
        98  11 -1.581898E+05 -1.115847E+05 -5.395492E+04  5.502390E+02 -6.617445E-13 -1.058791E-11
        98  12 -1.599820E+05 -1.122362E+05 -5.444366E+04  3.504263E+02  3.308722E-13 -2.316106E-12
        98  13 -1.485291E+05 -1.095245E+05 -5.161072E+04 -1.265485E+02 -2.646978E-12  0.000000E+00
        98  14 -1.512504E+05 -1.104204E+05 -5.233416E+04 -3.208092E+02  3.970467E-12  1.588187E-11
        98  15 -1.539625E+05 -1.113580E+05 -5.306410E+04 -4.816236E+02  3.308722E-13  1.124966E-11
        98  16 -1.408692E+05 -1.080809E+05 -4.979002E+04 -1.064387E+03  1.323489E-12 -2.646978E-12
        98  17 -1.442982E+05 -1.092280E+05 -5.070524E+04 -1.181314E+03 -3.970467E-12  1.323489E-12
        98  18 -1.478691E+05 -1.104902E+05 -5.167185E+04 -1.220225E+03  3.308722E-13  1.985233E-12
        98  19 -1.562254E+05 -1.109091E+05 -5.342690E+04  7.549886E+02 -2.316106E-11 -1.323489E-11
        98  20 -1.581898E+05 -1.115847E+05 -5.395492E+04  5.502390E+02 -4.632211E-12  3.573420E-11
        98  21 -1.599820E+05 -1.122362E+05 -5.444366E+04  3.504263E+02 -2.977850E-12 -1.323489E-12
        98  22 -1.485291E+05 -1.095245E+05 -5.161072E+04 -1.265485E+02  5.293956E-12  2.117582E-11
        98  23 -1.512504E+05 -1.104204E+05 -5.233416E+04 -3.208092E+02  0.000000E+00  1.058791E-11
        98  24 -1.539625E+05 -1.113580E+05 -5.306410E+04 -4.816236E+02  1.323489E-12  3.573420E-11
        98  25 -1.408692E+05 -1.080809E+05 -4.979002E+04 -1.064387E+03  0.000000E+00  2.117582E-11
        98  26 -1.442982E+05 -1.092280E+05 -5.070524E+04 -1.181314E+03 -2.117582E-11  3.176374E-11
        98  27 -1.478691E+05 -1.104902E+05 -5.167185E+04 -1.220225E+03  1.124966E-11  1.058791E-11
        99   1 -1.363904E+05 -1.070755E+05 -4.869317E+04 -1.444390E+03 -1.985233E-12  1.058791E-11
        99   2 -1.404837E+05 -1.080455E+05 -4.970583E+04 -1.668582E+03 -1.985233E-12  6.617445E-12
        99   3 -1.445222E+05 -1.090636E+05 -5.071716E+04 -1.882103E+03  1.000889E-11 -2.382280E-11
        99   4 -1.283767E+05 -1.057207E+05 -4.681949E+04 -1.399924E+03  0.000000E+00  0.000000E+00
        99   5 -1.331964E+05 -1.066796E+05 -4.797520E+04 -1.728637E+03 -1.323489E-11  5.293956E-12
        99   6 -1.380945E+05 -1.076779E+05 -4.915447E+04 -2.021873E+03  5.955700E-12 -4.367514E-11
        99   7 -1.203096E+05 -1.039963E+05 -4.486117E+04 -1.359901E+03  1.588187E-11 -2.117582E-11
        99   8 -1.257673E+05 -1.048396E+05 -4.612138E+04 -1.703897E+03  0.000000E+00  0.000000E+00
        99   9 -1.314156E+05 -1.056884E+05 -4.742079E+04 -1.966186E+03 -5.293956E-12  7.940934E-12
        99  10 -1.363904E+05 -1.070755E+05 -4.869317E+04 -1.444390E+03  0.000000E+00  0.000000E+00
        99  11 -1.404837E+05 -1.080455E+05 -4.970583E+04 -1.668582E+03 -2.646978E-12  0.000000E+00
        99  12 -1.445222E+05 -1.090636E+05 -5.071716E+04 -1.882103E+03  1.985233E-12  4.632211E-12
        99  13 -1.283767E+05 -1.057207E+05 -4.681949E+04 -1.399924E+03 -2.646978E-12 -1.058791E-11
        99  14 -1.331964E+05 -1.066796E+05 -4.797520E+04 -1.728637E+03 -1.323489E-12 -5.293956E-12
        99  15 -1.380945E+05 -1.076779E+05 -4.915447E+04 -2.021873E+03  2.316106E-12  5.293956E-12
        99  16 -1.203096E+05 -1.039963E+05 -4.486117E+04 -1.359901E+03  0.000000E+00 -2.646978E-12
        99  17 -1.257673E+05 -1.048396E+05 -4.612138E+04 -1.703897E+03  0.000000E+00 -1.323489E-12
        99  18 -1.314156E+05 -1.056884E+05 -4.742079E+04 -1.966186E+03 -1.158053E-12 -2.316106E-12
        99  19 -1.363904E+05 -1.070755E+05 -4.869317E+04 -1.444390E+03 -8.602678E-12 -3.176374E-11
        99  20 -1.404837E+05 -1.080455E+05 -4.970583E+04 -1.668582E+03 -8.602678E-12  1.455838E-11
        99  21 -1.445222E+05 -1.090636E+05 -5.071716E+04 -1.882103E+03 -1.000889E-11 -1.852885E-11
        99  22 -1.283767E+05 -1.057207E+05 -4.681949E+04 -1.399924E+03  0.000000E+00  0.000000E+00
        99  23 -1.331964E+05 -1.066796E+05 -4.797520E+04 -1.728637E+03  1.323489E-11 -5.293956E-12
        99  24 -1.380945E+05 -1.076779E+05 -4.915447E+04 -2.021873E+03 -1.654361E-11  4.367514E-11
        99  25 -1.203096E+05 -1.039963E+05 -4.486117E+04 -1.359901E+03 -1.588187E-11  0.000000E+00
        99  26 -1.257673E+05 -1.048396E+05 -4.612138E+04 -1.703897E+03  0.000000E+00  4.235165E-11
        99  27 -1.314156E+05 -1.056884E+05 -4.742079E+04 -1.966186E+03 -5.293956E-12 -7.940934E-12
       100   1 -1.263451E+05 -1.053661E+05 -4.634226E+04 -7.718784E+02 -1.985233E-12  0.000000E+00
       100   2 -1.302382E+05 -1.059517E+05 -4.723798E+04 -1.040053E+03  6.617445E-12 -4.632211E-11
       100   3 -1.340803E+05 -1.065671E+05 -4.812947E+04 -1.304765E+03 -3.308722E-12 -3.771944E-11
       100   4 -1.164146E+05 -1.043605E+05 -4.415501E+04 -6.303362E+02 -1.058791E-11  6.352747E-11
       100   5 -1.210499E+05 -1.049041E+05 -4.519082E+04 -9.929887E+02  2.646978E-12  5.293956E-12
       100   6 -1.257406E+05 -1.054677E+05 -4.624165E+04 -1.332980E+03  1.058791E-11  4.896909E-11
       100   7 -1.064175E+05 -1.029608E+05 -4.187566E+04 -4.819398E+02  1.058791E-11  2.117582E-11
       100   8 -1.117019E+05 -1.033501E+05 -4.301039E+04 -8.450918E+02 -5.293956E-12 -5.293956E-11
       100   9 -1.171307E+05 -1.037286E+05 -4.417187E+04 -1.149156E+03  5.293956E-12  2.646978E-12
       100  10 -1.263451E+05 -1.053661E+05 -4.634226E+04 -7.718784E+02 -1.323489E-12  2.646978E-12
       100  11 -1.302382E+05 -1.059517E+05 -4.723798E+04 -1.040053E+03  0.000000E+00  5.293956E-12
       100  12 -1.340803E+05 -1.065671E+05 -4.812947E+04 -1.304765E+03 -1.654361E-13  9.264423E-12
       100  13 -1.164146E+05 -1.043605E+05 -4.415501E+04 -6.303362E+02 -2.646978E-12  1.058791E-11
       100  14 -1.210499E+05 -1.049041E+05 -4.519082E+04 -9.929887E+02  1.323489E-12  1.588187E-11
       100  15 -1.257406E+05 -1.054677E+05 -4.624165E+04 -1.332980E+03  9.926167E-13  2.646978E-12
       100  16 -1.064175E+05 -1.029608E+05 -4.187566E+04 -4.819398E+02  1.323489E-12  0.000000E+00
       100  17 -1.117019E+05 -1.033501E+05 -4.301039E+04 -8.450918E+02  1.985233E-12 -3.970467E-12
       100  18 -1.171307E+05 -1.037286E+05 -4.417187E+04 -1.149156E+03 -2.646978E-12 -6.617445E-13
       100  19 -1.263451E+05 -1.053661E+05 -4.634226E+04 -7.718784E+02 -8.602678E-12  4.235165E-11
       100  20 -1.302382E+05 -1.059517E+05 -4.723798E+04 -1.040053E+03 -1.720536E-11  3.970467E-12
       100  21 -1.340803E+05 -1.065671E+05 -4.812947E+04 -1.304765E+03 -7.279189E-12  1.654361E-11
       100  22 -1.164146E+05 -1.043605E+05 -4.415501E+04 -6.303362E+02 -1.058791E-11  2.117582E-11
       100  23 -1.210499E+05 -1.049041E+05 -4.519082E+04 -9.929887E+02 -2.646978E-12 -4.764560E-11
       100  24 -1.257406E+05 -1.054677E+05 -4.624165E+04 -1.332980E+03  0.000000E+00 -6.617445E-12
       100  25 -1.064175E+05 -1.029608E+05 -4.187566E+04 -4.819398E+02 -1.058791E-11 -2.117582E-11
       100  26 -1.117019E+05 -1.033501E+05 -4.301039E+04 -8.450918E+02 -5.293956E-12  3.176374E-11
       100  27 -1.171307E+05 -1.037286E+05 -4.417187E+04 -1.149156E+03 -5.293956E-12  1.852885E-11
       101   1 -2.661144E+05 -2.297002E+05 -9.916291E+04  1.356882E+05  3.970467E-12 -6.617445E-13
       101   2 -2.393870E+05 -2.364897E+05 -9.517535E+04  1.327776E+05  4.632211E-12  3.970467E-12
       101   3 -2.119750E+05 -2.443382E+05 -9.126263E+04  1.279937E+05  4.921725E-12  1.819797E-12
       101   4 -2.746545E+05 -2.558617E+05 -1.061032E+05  1.318789E+05 -1.323489E-12  5.293956E-12
       101   5 -2.452957E+05 -2.668691E+05 -1.024330E+05  1.201986E+05  0.000000E+00  0.000000E+00
       101   6 -2.178772E+05 -2.798388E+05 -9.954320E+04  1.071514E+05  6.617445E-12 -7.940934E-12
       101   7 -2.793261E+05 -2.650268E+05 -1.088706E+05  1.258414E+05  0.000000E+00  1.058791E-11
       101   8 -2.488994E+05 -2.826728E+05 -1.063144E+05  1.081532E+05  0.000000E+00  1.058791E-11
       101   9 -2.220126E+05 -3.024258E+05 -1.048877E+05  8.887625E+04  1.985233E-12  3.970467E-12
       101  10 -2.661144E+05 -2.297002E+05 -9.916291E+04  1.356882E+05  0.000000E+00  0.000000E+00
       101  11 -2.393870E+05 -2.364897E+05 -9.517535E+04  1.327776E+05  0.000000E+00  3.308722E-13
       101  12 -2.119750E+05 -2.443382E+05 -9.126263E+04  1.279937E+05  1.240771E-13  4.963084E-13
       101  13 -2.746545E+05 -2.558617E+05 -1.061032E+05  1.318789E+05  1.323489E-12  2.646978E-12
       101  14 -2.452957E+05 -2.668691E+05 -1.024330E+05  1.201986E+05  0.000000E+00  0.000000E+00
       101  15 -2.178772E+05 -2.798388E+05 -9.954320E+04  1.071514E+05 -1.654361E-13  1.488925E-12
       101  16 -2.793261E+05 -2.650268E+05 -1.088706E+05  1.258414E+05 -3.308722E-13  6.617445E-13
       101  17 -2.488994E+05 -2.826728E+05 -1.063144E+05  1.081532E+05  4.963084E-13  2.646978E-12
       101  18 -2.220126E+05 -3.024258E+05 -1.048877E+05  8.887625E+04 -2.067952E-13  1.654361E-13
       101  19 -2.661144E+05 -2.297002E+05 -9.916291E+04  1.356882E+05 -6.617445E-12  6.617445E-13
       101  20 -2.393870E+05 -2.364897E+05 -9.517535E+04  1.327776E+05 -4.632211E-12  1.323489E-12
       101  21 -2.119750E+05 -2.443382E+05 -9.126263E+04  1.279937E+05 -2.274747E-12 -1.819797E-12
       101  22 -2.746545E+05 -2.558617E+05 -1.061032E+05  1.318789E+05 -1.323489E-12 -5.293956E-12
       101  23 -2.452957E+05 -2.668691E+05 -1.024330E+05  1.201986E+05  0.000000E+00 -1.058791E-11
       101  24 -2.178772E+05 -2.798388E+05 -9.954320E+04  1.071514E+05 -3.970467E-12  2.646978E-12
       101  25 -2.793261E+05 -2.650268E+05 -1.088706E+05  1.258414E+05 -2.646978E-12  0.000000E+00
       101  26 -2.488994E+05 -2.826728E+05 -1.063144E+05  1.081532E+05 -2.646978E-12  0.000000E+00
       101  27 -2.220126E+05 -3.024258E+05 -1.048877E+05  8.887625E+04  6.617445E-13 -3.970467E-12
       102   1 -1.782282E+05 -2.477875E+05 -8.520314E+04  1.249114E+05 -1.819797E-12  6.617445E-13
       102   2 -1.138340E+05 -2.760316E+05 -7.797312E+04  1.188651E+05 -1.654361E-13 -3.639595E-12
       102   3 -6.997562E+04 -3.142075E+05 -7.683663E+04  1.033358E+05  1.075335E-12  5.293956E-12
       102   4 -1.990582E+05 -3.095693E+05 -1.017255E+05  7.362833E+04  5.293956E-12 -5.293956E-12
       102   5 -1.818636E+05 -3.209098E+05 -1.005547E+05  5.559005E+04  1.323489E-12  5.293956E-12
       102   6 -1.732730E+05 -3.407641E+05 -1.028074E+05  3.161160E+04  2.646978E-12 -3.970467E-12
       102   7 -2.222560E+05 -3.184498E+05 -1.081412E+05  6.788508E+04  2.646978E-12  5.293956E-12
       102   8 -2.478671E+05 -3.298400E+05 -1.155414E+05  2.988363E+04  5.293956E-12 -7.940934E-12
       102   9 -2.733382E+05 -3.457572E+05 -1.238191E+05 -9.897115E+03  5.128520E-12 -5.293956E-12
       102  10 -1.782282E+05 -2.477875E+05 -8.520314E+04  1.249114E+05 -1.654361E-13  0.000000E+00
       102  11 -1.138340E+05 -2.760316E+05 -7.797312E+04  1.188651E+05 -6.617445E-13 -1.323489E-12
       102  12 -6.997562E+04 -3.142075E+05 -7.683663E+04  1.033358E+05 -4.342698E-13 -4.135903E-13
       102  13 -1.990582E+05 -3.095693E+05 -1.017255E+05  7.362833E+04  0.000000E+00 -1.323489E-12
       102  14 -1.818636E+05 -3.209098E+05 -1.005547E+05  5.559005E+04  1.654361E-12  0.000000E+00
       102  15 -1.732730E+05 -3.407641E+05 -1.028074E+05  3.161160E+04 -5.790264E-13 -6.617445E-13
       102  16 -2.222560E+05 -3.184498E+05 -1.081412E+05  6.788508E+04  0.000000E+00  6.617445E-13
       102  17 -2.478671E+05 -3.298400E+05 -1.155414E+05  2.988363E+04  6.617445E-13 -3.308722E-12
       102  18 -2.733382E+05 -3.457572E+05 -1.238191E+05 -9.897115E+03  1.447566E-13 -4.135903E-13
       102  19 -1.782282E+05 -2.477875E+05 -8.520314E+04  1.249114E+05 -2.150670E-12 -6.617445E-13
       102  20 -1.138340E+05 -2.760316E+05 -7.797312E+04  1.188651E+05 -2.481542E-12  8.933551E-12
       102  21 -6.997562E+04 -3.142075E+05 -7.683663E+04  1.033358E+05 -2.398824E-12 -1.058791E-11
       102  22 -1.990582E+05 -3.095693E+05 -1.017255E+05  7.362833E+04 -2.646978E-12 -5.293956E-12
       102  23 -1.818636E+05 -3.209098E+05 -1.005547E+05  5.559005E+04  1.323489E-12 -5.293956E-12
       102  24 -1.732730E+05 -3.407641E+05 -1.028074E+05  3.161160E+04 -2.646978E-12  3.970467E-12
       102  25 -2.222560E+05 -3.184498E+05 -1.081412E+05  6.788508E+04 -5.293956E-12  5.293956E-12
       102  26 -2.478671E+05 -3.298400E+05 -1.155414E+05  2.988363E+04 -5.293956E-12  2.646978E-12
       102  27 -2.733382E+05 -3.457572E+05 -1.238191E+05 -9.897115E+03 -3.805031E-12  5.293956E-12
       103   1 -2.520478E+05 -3.309032E+05 -1.165902E+05  5.638112E+04  4.632211E-12  4.632211E-12
       103   2 -2.520944E+05 -3.301478E+05 -1.164484E+05  2.796603E+04  5.293956E-12 -9.926167E-13
       103   3 -2.566040E+05 -3.262217E+05 -1.165651E+05 -6.731275E+02  5.707546E-12 -3.474159E-12
       103   4 -2.615811E+05 -3.156739E+05 -1.154510E+05  4.769216E+04 -2.646978E-12  5.293956E-12
       103   5 -2.604924E+05 -3.148793E+05 -1.150743E+05  2.516777E+04  1.985233E-12  7.940934E-12
       103   6 -2.635504E+05 -3.113639E+05 -1.149829E+05  1.729090E+03 -4.963084E-13 -3.308722E-13
       103   7 -2.737029E+05 -3.135092E+05 -1.174424E+05  3.754510E+04  0.000000E+00  1.058791E-11
       103   8 -2.712864E+05 -3.110499E+05 -1.164673E+05  2.011081E+04  7.940934E-12  0.000000E+00
       103   9 -2.727773E+05 -3.064637E+05 -1.158482E+05  1.290701E+03  5.293956E-12 -1.985233E-12
       103  10 -2.520478E+05 -3.309032E+05 -1.165902E+05  5.638112E+04  3.308722E-13  0.000000E+00
       103  11 -2.520944E+05 -3.301478E+05 -1.164484E+05  2.796603E+04  1.654361E-13  0.000000E+00
       103  12 -2.566040E+05 -3.262217E+05 -1.165651E+05 -6.731275E+02 -5.376674E-13  9.098987E-13
       103  13 -2.615811E+05 -3.156739E+05 -1.154510E+05  4.769216E+04  0.000000E+00  2.646978E-12
       103  14 -2.604924E+05 -3.148793E+05 -1.150743E+05  2.516777E+04 -1.323489E-12  0.000000E+00
       103  15 -2.635504E+05 -3.113639E+05 -1.149829E+05  1.729090E+03 -5.790264E-13  3.308722E-13
       103  16 -2.737029E+05 -3.135092E+05 -1.174424E+05  3.754510E+04  3.308722E-13 -6.617445E-13
       103  17 -2.712864E+05 -3.110499E+05 -1.164673E+05  2.011081E+04 -1.654361E-13  6.617445E-13
       103  18 -2.727773E+05 -3.064637E+05 -1.158482E+05  1.290701E+03  2.895132E-13  8.271806E-14
       103  19 -2.520478E+05 -3.309032E+05 -1.165902E+05  5.638112E+04  6.617445E-13  5.955700E-12
       103  20 -2.520944E+05 -3.301478E+05 -1.164484E+05  2.796603E+04  0.000000E+00  6.286573E-12
       103  21 -2.566040E+05 -3.262217E+05 -1.165651E+05 -6.731275E+02  9.098987E-13 -7.113753E-12
       103  22 -2.615811E+05 -3.156739E+05 -1.154510E+05  4.769216E+04 -2.646978E-12 -5.293956E-12
       103  23 -2.604924E+05 -3.148793E+05 -1.150743E+05  2.516777E+04  6.617445E-13  1.323489E-11
       103  24 -2.635504E+05 -3.113639E+05 -1.149829E+05  1.729090E+03 -2.150670E-12  3.308722E-13
       103  25 -2.737029E+05 -3.135092E+05 -1.174424E+05  3.754510E+04 -2.646978E-12  0.000000E+00
       103  26 -2.712864E+05 -3.110499E+05 -1.164673E+05  2.011081E+04 -7.940934E-12  1.058791E-11
       103  27 -2.727773E+05 -3.064637E+05 -1.158482E+05  1.290701E+03  0.000000E+00  2.316106E-11
       104   1 -2.813111E+05 -2.715383E+05 -1.105699E+05  1.207059E+05 -4.301339E-12 -1.191140E-11
       104   2 -2.590852E+05 -2.920796E+05 -1.102330E+05  9.832764E+04  1.654361E-12 -1.654361E-12
       104   3 -2.519010E+05 -3.260488E+05 -1.155900E+05  6.743531E+04  4.177262E-12 -2.067952E-12
       104   4 -2.886037E+05 -2.826027E+05 -1.142413E+05  1.129485E+05  0.000000E+00  0.000000E+00
       104   5 -2.700037E+05 -2.953837E+05 -1.130775E+05  8.964426E+04 -3.970467E-12 -1.720536E-11
       104   6 -2.639060E+05 -3.199653E+05 -1.167743E+05  5.892837E+04  3.474159E-12 -2.977850E-12
       104   7 -2.969327E+05 -2.914791E+05 -1.176823E+05  1.063536E+05  2.646978E-12 -5.293956E-12
       104   8 -2.815613E+05 -2.991367E+05 -1.161396E+05  8.178620E+04  2.646978E-12  0.000000E+00
       104   9 -2.767143E+05 -3.168614E+05 -1.187151E+05  5.074794E+04 -3.308722E-13 -7.940934E-12
       104  10 -2.813111E+05 -2.715383E+05 -1.105699E+05  1.207059E+05  3.308722E-13  0.000000E+00
       104  11 -2.590852E+05 -2.920796E+05 -1.102330E+05  9.832764E+04  1.323489E-12  3.308722E-13
       104  12 -2.519010E+05 -3.260488E+05 -1.155900E+05  6.743531E+04  3.722313E-13  1.654361E-13
       104  13 -2.886037E+05 -2.826027E+05 -1.142413E+05  1.129485E+05 -6.617445E-13 -1.323489E-12
       104  14 -2.700037E+05 -2.953837E+05 -1.130775E+05  8.964426E+04 -6.617445E-13  2.646978E-12
       104  15 -2.639060E+05 -3.199653E+05 -1.167743E+05  5.892837E+04  6.617445E-13 -6.617445E-13
       104  16 -2.969327E+05 -2.914791E+05 -1.176823E+05  1.063536E+05  6.617445E-13  0.000000E+00
       104  17 -2.815613E+05 -2.991367E+05 -1.161396E+05  8.178620E+04 -4.963084E-13  9.926167E-13
       104  18 -2.767143E+05 -3.168614E+05 -1.187151E+05  5.074794E+04  3.722313E-13  1.737079E-12
       104  19 -2.813111E+05 -2.715383E+05 -1.105699E+05  1.207059E+05  1.654361E-12  1.191140E-11
       104  20 -2.590852E+05 -2.920796E+05 -1.102330E+05  9.832764E+04 -4.301339E-12  1.654361E-12
       104  21 -2.519010E+05 -3.260488E+05 -1.155900E+05  6.743531E+04 -1.530284E-12  2.067952E-12
       104  22 -2.886037E+05 -2.826027E+05 -1.142413E+05  1.129485E+05 -5.293956E-12  0.000000E+00
       104  23 -2.700037E+05 -2.953837E+05 -1.130775E+05  8.964426E+04 -1.323489E-12  1.323489E-12
       104  24 -2.639060E+05 -3.199653E+05 -1.167743E+05  5.892837E+04 -3.474159E-12  2.977850E-12
       104  25 -2.969327E+05 -2.914791E+05 -1.176823E+05  1.063536E+05 -5.293956E-12  5.293956E-12
       104  26 -2.815613E+05 -2.991367E+05 -1.161396E+05  8.178620E+04 -2.646978E-12 -5.293956E-12
       104  27 -2.767143E+05 -3.168614E+05 -1.187151E+05  5.074794E+04 -2.316106E-12 -2.646978E-12
       105   1 -1.201018E+05 -1.016590E+05 -4.435218E+04  1.098318E+02 -2.183757E-11  1.588187E-11
       105   2 -1.163390E+05 -1.015077E+05 -4.356934E+04 -4.779997E+00  5.955700E-12  3.176374E-11
       105   3 -1.125850E+05 -1.012272E+05 -4.276242E+04  9.623217E+01 -1.017432E-11 -3.308722E-12
       105   4 -1.231797E+05 -1.017007E+05 -4.497607E+04 -4.367498E+02 -7.940934E-12 -2.117582E-11
       105   5 -1.186137E+05 -1.017172E+05 -4.406618E+04 -2.811651E+02  2.646978E-12  1.058791E-11
       105   6 -1.140922E+05 -1.015532E+05 -4.312908E+04 -3.589865E+00  7.940934E-12 -4.367514E-11
       105   7 -1.258170E+05 -1.017767E+05 -4.551872E+04 -1.118270E+03 -5.293956E-12  0.000000E+00
       105   8 -1.206865E+05 -1.019608E+05 -4.452946E+04 -7.008509E+02  1.058791E-11 -1.058791E-11
       105   9 -1.155859E+05 -1.019222E+05 -4.350162E+04 -2.368963E+02 -3.970467E-12 -1.058791E-11
       105  10 -1.201018E+05 -1.016590E+05 -4.435218E+04  1.098318E+02  6.617445E-13  2.646978E-12
       105  11 -1.163390E+05 -1.015077E+05 -4.356934E+04 -4.779997E+00 -2.646978E-12 -1.323489E-12
       105  12 -1.125850E+05 -1.012272E+05 -4.276242E+04  9.623217E+01  1.488925E-12  1.985233E-12
       105  13 -1.231797E+05 -1.017007E+05 -4.497607E+04 -4.367498E+02  2.646978E-12  0.000000E+00
       105  14 -1.186137E+05 -1.017172E+05 -4.406618E+04 -2.811651E+02  1.323489E-12  1.588187E-11
       105  15 -1.140922E+05 -1.015532E+05 -4.312908E+04 -3.589865E+00  3.970467E-12  7.940934E-12
       105  16 -1.258170E+05 -1.017767E+05 -4.551872E+04 -1.118270E+03  6.617445E-13  5.293956E-12
       105  17 -1.206865E+05 -1.019608E+05 -4.452946E+04 -7.008509E+02  0.000000E+00  2.646978E-12
       105  18 -1.155859E+05 -1.019222E+05 -4.350162E+04 -2.368963E+02  4.135903E-13  4.301339E-12
       105  19 -1.201018E+05 -1.016590E+05 -4.435218E+04  1.098318E+02  6.617445E-13  5.293956E-12
       105  20 -1.163390E+05 -1.015077E+05 -4.356934E+04 -4.779997E+00 -5.955700E-12 -3.176374E-11
       105  21 -1.125850E+05 -1.012272E+05 -4.276242E+04  9.623217E+01 -5.707546E-12  4.566037E-11
       105  22 -1.231797E+05 -1.017007E+05 -4.497607E+04 -4.367498E+02 -2.646978E-12  2.117582E-11
       105  23 -1.186137E+05 -1.017172E+05 -4.406618E+04 -2.811651E+02 -2.646978E-12 -1.058791E-11
       105  24 -1.140922E+05 -1.015532E+05 -4.312908E+04 -3.589865E+00  1.323489E-11 -1.985233E-11
       105  25 -1.258170E+05 -1.017767E+05 -4.551872E+04 -1.118270E+03 -5.293956E-12  0.000000E+00
       105  26 -1.206865E+05 -1.019608E+05 -4.452946E+04 -7.008509E+02 -1.058791E-11 -1.058791E-11
       105  27 -1.155859E+05 -1.019222E+05 -4.350162E+04 -2.368963E+02  3.970467E-12  1.058791E-11
       106   1 -1.103842E+05 -1.011974E+05 -4.231632E+04  2.390090E+02  4.632211E-12  2.646978E-11
       106   2 -1.064996E+05 -1.013103E+05 -4.156197E+04  1.385275E+02 -9.926167E-13  1.852885E-11
       106   3 -1.025460E+05 -1.011152E+05 -4.073223E+04  7.205045E+01  9.512577E-12  1.058791E-11
       106   4 -1.114801E+05 -1.015434E+05 -4.260470E+04 -7.457259E+01  2.911676E-11  6.352747E-11
       106   5 -1.070309E+05 -1.013853E+05 -4.168323E+04 -1.099972E+01 -7.940934E-12  5.293956E-12
       106   6 -1.025332E+05 -1.009735E+05 -4.070134E+04  5.154473E+01 -3.308722E-13 -3.970467E-12
       106   7 -1.126474E+05 -1.018728E+05 -4.290403E+04 -2.569045E+02 -5.293956E-12  0.000000E+00
       106   8 -1.077367E+05 -1.014908E+05 -4.184552E+04 -6.341656E+01  7.940934E-12  1.058791E-11
       106   9 -1.027797E+05 -1.008948E+05 -4.073490E+04  1.041227E+02  9.264423E-12 -3.970467E-11
       106  10 -1.103842E+05 -1.011974E+05 -4.231632E+04  2.390090E+02  0.000000E+00  5.293956E-12
       106  11 -1.064996E+05 -1.013103E+05 -4.156197E+04  1.385275E+02 -1.985233E-12 -2.646978E-12
       106  12 -1.025460E+05 -1.011152E+05 -4.073223E+04  7.205045E+01  9.098987E-13 -1.323489E-12
       106  13 -1.114801E+05 -1.015434E+05 -4.260470E+04 -7.457259E+01  0.000000E+00  0.000000E+00
       106  14 -1.070309E+05 -1.013853E+05 -4.168323E+04 -1.099972E+01  1.323489E-12 -5.293956E-12
       106  15 -1.025332E+05 -1.009735E+05 -4.070134E+04  5.154473E+01 -6.617445E-13  1.323489E-12
       106  16 -1.126474E+05 -1.018728E+05 -4.290403E+04 -2.569045E+02  1.985233E-12 -2.646978E-12
       106  17 -1.077367E+05 -1.014908E+05 -4.184552E+04 -6.341656E+01  6.617445E-13 -6.617445E-12
       106  18 -1.027797E+05 -1.008948E+05 -4.073490E+04  1.041227E+02  1.654361E-13 -3.308722E-12
       106  19 -1.103842E+05 -1.011974E+05 -4.231632E+04  2.390090E+02 -9.926167E-12  3.705769E-11
       106  20 -1.064996E+05 -1.013103E+05 -4.156197E+04  1.385275E+02 -9.595295E-12  2.646978E-12
       106  21 -1.025460E+05 -1.011152E+05 -4.073223E+04  7.205045E+01  1.075335E-12 -1.058791E-11
       106  22 -1.114801E+05 -1.015434E+05 -4.260470E+04 -7.457259E+01 -7.940934E-12 -2.117582E-11
       106  23 -1.070309E+05 -1.013853E+05 -4.168323E+04 -1.099972E+01 -2.646978E-12 -5.293956E-12
       106  24 -1.025332E+05 -1.009735E+05 -4.070134E+04  5.154473E+01 -1.025704E-11 -1.720536E-11
       106  25 -1.126474E+05 -1.018728E+05 -4.290403E+04 -2.569045E+02  5.293956E-12  2.117582E-11
       106  26 -1.077367E+05 -1.014908E+05 -4.184552E+04 -6.341656E+01  2.382280E-11  1.058791E-11
       106  27 -1.027797E+05 -1.008948E+05 -4.073490E+04  1.041227E+02 -9.264423E-12 -2.646978E-12
       107   1 -1.130042E+05 -1.021747E+05 -4.303578E+04 -5.612522E+02  1.389663E-11 -1.852885E-11
       107   2 -1.078379E+05 -1.016240E+05 -4.189237E+04 -3.598482E+02  2.514629E-11  1.588187E-11
       107   3 -1.027358E+05 -1.012178E+05 -4.079071E+04 -1.103577E+02  2.316106E-12  1.158053E-11
       107   4 -1.137486E+05 -1.027650E+05 -4.330272E+04 -7.547339E+02  1.323489E-11  2.117582E-11
       107   5 -1.083290E+05 -1.024104E+05 -4.214789E+04 -5.206697E+02  2.646978E-12  1.588187E-11
       107   6 -1.029233E+05 -1.021297E+05 -4.101060E+04 -2.724151E+02 -3.308722E-12  4.235165E-11
       107   7 -1.142083E+05 -1.033083E+05 -4.350332E+04 -1.030827E+03  0.000000E+00  6.352747E-11
       107   8 -1.086297E+05 -1.031572E+05 -4.235738E+04 -7.385278E+02  2.646978E-12  0.000000E+00
       107   9 -1.030089E+05 -1.030169E+05 -4.120517E+04 -4.650464E+02  4.632211E-12  1.852885E-11
       107  10 -1.130042E+05 -1.021747E+05 -4.303578E+04 -5.612522E+02  1.323489E-12 -5.293956E-12
       107  11 -1.078379E+05 -1.016240E+05 -4.189237E+04 -3.598482E+02  6.617445E-13 -2.646978E-12
       107  12 -1.027358E+05 -1.012178E+05 -4.079071E+04 -1.103577E+02  1.654361E-13  8.933551E-12
       107  13 -1.137486E+05 -1.027650E+05 -4.330272E+04 -7.547339E+02  0.000000E+00  1.058791E-11
       107  14 -1.083290E+05 -1.024104E+05 -4.214789E+04 -5.206697E+02  5.293956E-12  0.000000E+00
       107  15 -1.029233E+05 -1.021297E+05 -4.101060E+04 -2.724151E+02 -1.323489E-12 -5.293956E-12
       107  16 -1.142083E+05 -1.033083E+05 -4.350332E+04 -1.030827E+03  0.000000E+00 -5.293956E-12
       107  17 -1.086297E+05 -1.031572E+05 -4.235738E+04 -7.385278E+02 -6.617445E-13  6.617445E-12
       107  18 -1.030089E+05 -1.030169E+05 -4.120517E+04 -4.650464E+02  2.646978E-12 -2.646978E-12
       107  19 -1.130042E+05 -1.021747E+05 -4.303578E+04 -5.612522E+02 -3.308722E-12 -2.646978E-12
       107  20 -1.078379E+05 -1.016240E+05 -4.189237E+04 -3.598482E+02 -3.970467E-12  5.293956E-12
       107  21 -1.027358E+05 -1.012178E+05 -4.079071E+04 -1.103577E+02 -2.316106E-12  9.595295E-12
       107  22 -1.137486E+05 -1.027650E+05 -4.330272E+04 -7.547339E+02 -1.323489E-11  2.117582E-11
       107  23 -1.083290E+05 -1.024104E+05 -4.214789E+04 -5.206697E+02  7.940934E-12 -1.588187E-11
       107  24 -1.029233E+05 -1.021297E+05 -4.101060E+04 -2.724151E+02  3.308722E-12  0.000000E+00
       107  25 -1.142083E+05 -1.033083E+05 -4.350332E+04 -1.030827E+03 -1.058791E-11  0.000000E+00
       107  26 -1.086297E+05 -1.031572E+05 -4.235738E+04 -7.385278E+02 -1.323489E-11  0.000000E+00
       107  27 -1.030089E+05 -1.030169E+05 -4.120517E+04 -4.650464E+02 -2.580804E-11 -1.852885E-11
       108   1 -1.266908E+05 -1.033346E+05 -4.600507E+04 -1.704851E+03 -6.617445E-12  7.940934E-12
       108   2 -1.213643E+05 -1.027525E+05 -4.482336E+04 -1.199720E+03  5.624828E-12 -1.852885E-11
       108   3 -1.160624E+05 -1.024070E+05 -4.369388E+04 -6.780528E+02 -1.737079E-12 -2.646978E-11
       108   4 -1.280261E+05 -1.043242E+05 -4.647006E+04 -1.864732E+03  1.323489E-11 -4.235165E-11
       108   5 -1.225051E+05 -1.035818E+05 -4.521739E+04 -1.453796E+03 -7.940934E-12  4.235165E-11
       108   6 -1.169556E+05 -1.030432E+05 -4.399975E+04 -1.043463E+03  1.091878E-11 -2.382280E-11
       108   7 -1.291057E+05 -1.051635E+05 -4.685385E+04 -1.884512E+03  0.000000E+00 -2.117582E-11
       108   8 -1.234571E+05 -1.042969E+05 -4.555080E+04 -1.566735E+03 -2.117582E-11  2.117582E-11
       108   9 -1.177244E+05 -1.036005E+05 -4.426498E+04 -1.264379E+03 -1.985233E-12  2.911676E-11
       108  10 -1.266908E+05 -1.033346E+05 -4.600507E+04 -1.704851E+03 -1.323489E-12  2.646978E-12
       108  11 -1.213643E+05 -1.027525E+05 -4.482336E+04 -1.199720E+03 -6.617445E-13  9.264423E-12
       108  12 -1.160624E+05 -1.024070E+05 -4.369388E+04 -6.780528E+02 -6.617445E-13 -2.646978E-12
       108  13 -1.280261E+05 -1.043242E+05 -4.647006E+04 -1.864732E+03 -2.646978E-12  0.000000E+00
       108  14 -1.225051E+05 -1.035818E+05 -4.521739E+04 -1.453796E+03  0.000000E+00  1.058791E-11
       108  15 -1.169556E+05 -1.030432E+05 -4.399975E+04 -1.043463E+03  3.308722E-13 -9.264423E-12
       108  16 -1.291057E+05 -1.051635E+05 -4.685385E+04 -1.884512E+03  1.323489E-12 -2.646978E-12
       108  17 -1.234571E+05 -1.042969E+05 -4.555080E+04 -1.566735E+03  3.308722E-12 -2.646978E-12
       108  18 -1.177244E+05 -1.036005E+05 -4.426498E+04 -1.264379E+03 -2.481542E-13  0.000000E+00
       108  19 -1.266908E+05 -1.033346E+05 -4.600507E+04 -1.704851E+03 -1.455838E-11 -7.940934E-12
       108  20 -1.213643E+05 -1.027525E+05 -4.482336E+04 -1.199720E+03 -5.624828E-12  3.970467E-11
       108  21 -1.160624E+05 -1.024070E+05 -4.369388E+04 -6.780528E+02  1.737079E-12  2.646978E-11
       108  22 -1.280261E+05 -1.043242E+05 -4.647006E+04 -1.864732E+03 -2.646978E-12  2.117582E-11
       108  23 -1.225051E+05 -1.035818E+05 -4.521739E+04 -1.453796E+03  7.940934E-12  0.000000E+00
       108  24 -1.169556E+05 -1.030432E+05 -4.399975E+04 -1.043463E+03 -1.091878E-11  2.382280E-11
       108  25 -1.291057E+05 -1.051635E+05 -4.685385E+04 -1.884512E+03 -1.058791E-11  2.117582E-11
       108  26 -1.234571E+05 -1.042969E+05 -4.555080E+04 -1.566735E+03  0.000000E+00  0.000000E+00
       108  27 -1.177244E+05 -1.036005E+05 -4.426498E+04 -1.264379E+03 -8.602678E-12 -7.940934E-12
       109   1 -1.051568E+05 -1.041374E+05 -4.185882E+04 -6.485806E+02  1.852885E-11 -5.293956E-12
       109   2 -1.053576E+05 -1.041299E+05 -4.189750E+04 -5.392379E+02 -1.852885E-11  6.485096E-11
       109   3 -1.064128E+05 -1.043114E+05 -4.214484E+04 -3.151150E+02  6.038418E-12 -5.327043E-11
       109   4 -1.158653E+05 -1.040255E+05 -4.397815E+04 -5.449895E+02 -5.293956E-12 -5.293956E-11
       109   5 -1.181258E+05 -1.041359E+05 -4.445235E+04  3.325090E+02  0.000000E+00  3.705769E-11
       109   6 -1.206093E+05 -1.042898E+05 -4.497982E+04  1.199493E+03 -2.646978E-12  1.191140E-11
       109   7 -1.267828E+05 -1.057106E+05 -4.649869E+04 -3.336525E+02  1.058791E-11  4.235165E-11
       109   8 -1.313002E+05 -1.053647E+05 -4.733298E+04  9.339635E+02  1.588187E-11 -5.293956E-11
       109   9 -1.352952E+05 -1.050833E+05 -4.807571E+04  2.172955E+03 -5.293956E-12 -3.705769E-11
       109  10 -1.051568E+05 -1.041374E+05 -4.185882E+04 -6.485806E+02  0.000000E+00  2.646978E-12
       109  11 -1.053576E+05 -1.041299E+05 -4.189750E+04 -5.392379E+02 -2.646978E-12  3.970467E-12
       109  12 -1.064128E+05 -1.043114E+05 -4.214484E+04 -3.151150E+02 -1.819797E-12  3.308722E-12
       109  13 -1.158653E+05 -1.040255E+05 -4.397815E+04 -5.449895E+02 -5.293956E-12  0.000000E+00
       109  14 -1.181258E+05 -1.041359E+05 -4.445235E+04  3.325090E+02  1.323489E-12  0.000000E+00
       109  15 -1.206093E+05 -1.042898E+05 -4.497982E+04  1.199493E+03 -2.316106E-12  7.940934E-12
       109  16 -1.267828E+05 -1.057106E+05 -4.649869E+04 -3.336525E+02  1.323489E-12 -7.940934E-12
       109  17 -1.313002E+05 -1.053647E+05 -4.733298E+04  9.339635E+02 -1.323489E-12 -6.617445E-12
       109  18 -1.352952E+05 -1.050833E+05 -4.807571E+04  2.172955E+03  1.488925E-12  1.323489E-12
       109  19 -1.051568E+05 -1.041374E+05 -4.185882E+04 -6.485806E+02  2.646978E-12  2.646978E-11
       109  20 -1.053576E+05 -1.041299E+05 -4.189750E+04 -5.392379E+02  2.911676E-11 -2.249931E-11
       109  21 -1.064128E+05 -1.043114E+05 -4.214484E+04 -3.151150E+02  4.549493E-12  3.209461E-11
       109  22 -1.158653E+05 -1.040255E+05 -4.397815E+04 -5.449895E+02  5.293956E-12  1.058791E-11
       109  23 -1.181258E+05 -1.041359E+05 -4.445235E+04  3.325090E+02  1.058791E-11  5.293956E-12
       109  24 -1.206093E+05 -1.042898E+05 -4.497982E+04  1.199493E+03 -7.940934E-12  3.044025E-11
       109  25 -1.267828E+05 -1.057106E+05 -4.649869E+04 -3.336525E+02  0.000000E+00  4.235165E-11
       109  26 -1.313002E+05 -1.053647E+05 -4.733298E+04  9.339635E+02 -1.588187E-11  1.058791E-11
       109  27 -1.352952E+05 -1.050833E+05 -4.807571E+04  2.172955E+03  5.293956E-12 -5.293956E-12
       110   1 -1.067554E+05 -1.044658E+05 -4.224423E+04  8.512559E+01  0.000000E+00 -2.117582E-11
       110   2 -1.073237E+05 -1.033068E+05 -4.212611E+04  5.491859E+02  9.264423E-12 -3.705769E-11
       110   3 -1.086783E+05 -1.023108E+05 -4.219783E+04  1.175949E+03 -1.009160E-11 -4.929996E-11
       110   4 -1.219786E+05 -1.036998E+05 -4.513568E+04  1.696176E+03  3.176374E-11  0.000000E+00
       110   5 -1.243169E+05 -1.030781E+05 -4.547900E+04  3.241573E+03 -1.323489E-11  1.588187E-11
       110   6 -1.270062E+05 -1.024769E+05 -4.589663E+04  4.827804E+03 -2.646978E-12 -6.485096E-11
       110   7 -1.377694E+05 -1.055615E+05 -4.866619E+04  3.257924E+03  0.000000E+00  2.117582E-11
       110   8 -1.419352E+05 -1.047442E+05 -4.933588E+04  5.578839E+03  3.176374E-11  1.058791E-11
       110   9 -1.459484E+05 -1.039419E+05 -4.997806E+04  7.894548E+03  1.191140E-11  3.705769E-11
       110  10 -1.067554E+05 -1.044658E+05 -4.224423E+04  8.512559E+01 -2.646978E-12 -7.940934E-12
       110  11 -1.073237E+05 -1.033068E+05 -4.212611E+04  5.491859E+02 -3.970467E-12  1.323489E-12
       110  12 -1.086783E+05 -1.023108E+05 -4.219783E+04  1.175949E+03 -8.271806E-13  2.316106E-12
       110  13 -1.219786E+05 -1.036998E+05 -4.513568E+04  1.696176E+03  0.000000E+00  0.000000E+00
       110  14 -1.243169E+05 -1.030781E+05 -4.547900E+04  3.241573E+03  6.617445E-12  1.058791E-11
       110  15 -1.270062E+05 -1.024769E+05 -4.589663E+04  4.827804E+03 -6.617445E-13 -1.323489E-12
       110  16 -1.377694E+05 -1.055615E+05 -4.866619E+04  3.257924E+03  0.000000E+00  2.646978E-12
       110  17 -1.419352E+05 -1.047442E+05 -4.933588E+04  5.578839E+03  6.617445E-13  5.293956E-12
       110  18 -1.459484E+05 -1.039419E+05 -4.997806E+04  7.894548E+03  1.654361E-13 -4.632211E-12
       110  19 -1.067554E+05 -1.044658E+05 -4.224423E+04  8.512559E+01  0.000000E+00  2.117582E-11
       110  20 -1.073237E+05 -1.033068E+05 -4.212611E+04  5.491859E+02  1.323489E-12  1.588187E-11
       110  21 -1.086783E+05 -1.023108E+05 -4.219783E+04  1.175949E+03  1.009160E-11  6.948317E-12
       110  22 -1.219786E+05 -1.036998E+05 -4.513568E+04  1.696176E+03 -2.117582E-11  4.235165E-11
       110  23 -1.243169E+05 -1.030781E+05 -4.547900E+04  3.241573E+03  1.323489E-11 -1.588187E-11
       110  24 -1.270062E+05 -1.024769E+05 -4.589663E+04  4.827804E+03 -1.852885E-11 -1.985233E-11
       110  25 -1.377694E+05 -1.055615E+05 -4.866619E+04  3.257924E+03  0.000000E+00  0.000000E+00
       110  26 -1.419352E+05 -1.047442E+05 -4.933588E+04  5.578839E+03 -1.058791E-11  3.176374E-11
       110  27 -1.459484E+05 -1.039419E+05 -4.997806E+04  7.894548E+03 -1.191140E-11 -1.588187E-11
       111   1 -1.464447E+05 -1.064030E+05 -5.056955E+04  4.541796E+03 -2.646978E-12 -2.117582E-11
       111   2 -1.504371E+05 -1.058517E+05 -5.125776E+04  7.416086E+03  4.632211E-12 -2.646978E-12
       111   3 -1.538378E+05 -1.042222E+05 -5.161200E+04  1.093379E+04  8.271806E-12 -1.588187E-11
       111   4 -1.589736E+05 -1.055737E+05 -5.290947E+04  8.769165E+03  0.000000E+00 -4.235165E-11
       111   5 -1.645485E+05 -1.059892E+05 -5.410752E+04  1.239386E+04 -1.852885E-11  0.000000E+00
       111   6 -1.691232E+05 -1.054282E+05 -5.491029E+04  1.661574E+04  1.257315E-11  5.161607E-11
       111   7 -1.729265E+05 -1.096530E+05 -5.651591E+04  1.224142E+04 -1.058791E-11  0.000000E+00
       111   8 -1.799299E+05 -1.093159E+05 -5.784915E+04  1.649817E+04  1.588187E-11 -3.176374E-11
       111   9 -1.855718E+05 -1.084856E+05 -5.881150E+04  2.132731E+04  1.455838E-11 -2.117582E-11
       111  10 -1.464447E+05 -1.064030E+05 -5.056955E+04  4.541796E+03  2.646978E-12 -5.293956E-12
       111  11 -1.504371E+05 -1.058517E+05 -5.125776E+04  7.416086E+03  1.323489E-12 -1.323489E-12
       111  12 -1.538378E+05 -1.042222E+05 -5.161200E+04  1.093379E+04 -6.617445E-13 -4.963084E-12
       111  13 -1.589736E+05 -1.055737E+05 -5.290947E+04  8.769165E+03  0.000000E+00  0.000000E+00
       111  14 -1.645485E+05 -1.059892E+05 -5.410752E+04  1.239386E+04 -2.646978E-12  0.000000E+00
       111  15 -1.691232E+05 -1.054282E+05 -5.491029E+04  1.661574E+04  6.617445E-13  1.455838E-11
       111  16 -1.729265E+05 -1.096530E+05 -5.651591E+04  1.224142E+04 -1.323489E-12  5.293956E-12
       111  17 -1.799299E+05 -1.093159E+05 -5.784915E+04  1.649817E+04 -1.985233E-12  1.323489E-12
       111  18 -1.855718E+05 -1.084856E+05 -5.881150E+04  2.132731E+04 -2.316106E-12  9.926167E-13
       111  19 -1.464447E+05 -1.064030E+05 -5.056955E+04  4.541796E+03  2.646978E-12  0.000000E+00
       111  20 -1.504371E+05 -1.058517E+05 -5.125776E+04  7.416086E+03  5.955700E-12  2.646978E-12
       111  21 -1.538378E+05 -1.042222E+05 -5.161200E+04  1.093379E+04 -1.885972E-11  1.588187E-11
       111  22 -1.589736E+05 -1.055737E+05 -5.290947E+04  8.769165E+03  1.058791E-11  0.000000E+00
       111  23 -1.645485E+05 -1.059892E+05 -5.410752E+04  1.239386E+04 -2.646978E-12  2.117582E-11
       111  24 -1.691232E+05 -1.054282E+05 -5.491029E+04  1.661574E+04 -1.257315E-11  1.191140E-11
       111  25 -1.729265E+05 -1.096530E+05 -5.651591E+04  1.224142E+04  0.000000E+00  0.000000E+00
       111  26 -1.799299E+05 -1.093159E+05 -5.784915E+04  1.649817E+04  5.293956E-12  3.176374E-11
       111  27 -1.855718E+05 -1.084856E+05 -5.881150E+04  2.132731E+04 -2.514629E-11  2.117582E-11
       112   1 -1.330767E+05 -1.066922E+05 -4.795378E+04 -2.624146E+02  1.058791E-11 -5.293956E-12
       112   2 -1.383461E+05 -1.071024E+05 -4.908971E+04  1.064974E+03  4.632211E-12 -2.117582E-11
       112   3 -1.436748E+05 -1.063609E+05 -5.000714E+04  3.004553E+03  9.760731E-12  3.904292E-11
       112   4 -1.425328E+05 -1.060688E+05 -4.972031E+04  1.442100E+03  5.293956E-12 -4.235165E-11
       112   5 -1.493439E+05 -1.070847E+05 -5.128571E+04  3.874168E+03  0.000000E+00  1.588187E-11
       112   6 -1.557333E+05 -1.071003E+05 -5.256672E+04  6.784108E+03 -2.316106E-11 -1.323489E-11
       112   7 -1.529236E+05 -1.090783E+05 -5.240037E+04  2.694240E+03 -5.293956E-12  0.000000E+00
       112   8 -1.611559E+05 -1.092150E+05 -5.407418E+04  6.073747E+03  5.293956E-12 -1.058791E-11
       112   9 -1.684986E+05 -1.089803E+05 -5.549578E+04  9.839506E+03 -1.323489E-11 -6.617445E-11
       112  10 -1.330767E+05 -1.066922E+05 -4.795378E+04 -2.624146E+02 -1.323489E-12  0.000000E+00
       112  11 -1.383461E+05 -1.071024E+05 -4.908971E+04  1.064974E+03  1.985233E-12 -6.617445E-12
       112  12 -1.436748E+05 -1.063609E+05 -5.000714E+04  3.004553E+03 -3.143286E-12 -9.926167E-13
       112  13 -1.425328E+05 -1.060688E+05 -4.972031E+04  1.442100E+03  0.000000E+00  5.293956E-12
       112  14 -1.493439E+05 -1.070847E+05 -5.128571E+04  3.874168E+03  2.646978E-12  5.293956E-12
       112  15 -1.557333E+05 -1.071003E+05 -5.256672E+04  6.784108E+03 -2.977850E-12 -7.940934E-12
       112  16 -1.529236E+05 -1.090783E+05 -5.240037E+04  2.694240E+03  0.000000E+00 -2.646978E-12
       112  17 -1.611559E+05 -1.092150E+05 -5.407418E+04  6.073747E+03 -1.985233E-12  0.000000E+00
       112  18 -1.684986E+05 -1.089803E+05 -5.549578E+04  9.839506E+03 -6.617445E-13  6.617445E-13
       112  19 -1.330767E+05 -1.066922E+05 -4.795378E+04 -2.624146E+02 -1.058791E-11 -1.588187E-11
       112  20 -1.383461E+05 -1.071024E+05 -4.908971E+04  1.064974E+03 -4.632211E-12  0.000000E+00
       112  21 -1.436748E+05 -1.063609E+05 -5.000714E+04  3.004553E+03 -9.760731E-12  3.308722E-12
       112  22 -1.425328E+05 -1.060688E+05 -4.972031E+04  1.442100E+03  1.588187E-11  2.117582E-11
       112  23 -1.493439E+05 -1.070847E+05 -5.128571E+04  3.874168E+03  1.058791E-11 -5.823352E-11
       112  24 -1.557333E+05 -1.071003E+05 -5.256672E+04  6.784108E+03  2.316106E-11  3.441071E-11
       112  25 -1.529236E+05 -1.090783E+05 -5.240037E+04  2.694240E+03 -5.293956E-12  2.117582E-11
       112  26 -1.611559E+05 -1.092150E+05 -5.407418E+04  6.073747E+03 -2.646978E-11  1.058791E-11
       112  27 -1.684986E+05 -1.089803E+05 -5.549578E+04  9.839506E+03  1.323489E-11  2.646978E-12
       113   1 -4.240844E+05 -1.102903E+05 -1.068749E+05  2.069552E+05  4.135903E-14  1.654361E-13
       113   2 -3.922208E+05 -1.033750E+05 -9.911916E+04  2.257157E+05  2.067952E-14  0.000000E+00
       113   3 -3.438485E+05 -9.246981E+04 -8.726367E+04  2.511665E+05  7.754818E-14  4.135903E-14
       113   4 -3.706373E+05 -1.182069E+05 -9.776885E+04  2.293844E+05  0.000000E+00  3.308722E-13
       113   5 -3.327167E+05 -1.145090E+05 -8.944515E+04  2.507919E+05 -1.654361E-13  3.308722E-13
       113   6 -2.740080E+05 -1.065142E+05 -7.610443E+04  2.806108E+05  2.274747E-13 -9.512577E-13
       113   7 -3.364262E+05 -1.432715E+05 -9.593952E+04  2.400143E+05  3.308722E-13  6.617445E-13
       113   8 -2.938694E+05 -1.454922E+05 -8.787234E+04  2.630756E+05  1.654361E-13 -3.308722E-13
       113   9 -2.256271E+05 -1.436592E+05 -7.385727E+04  2.964212E+05  2.895132E-13 -7.444626E-13
       113  10 -4.240844E+05 -1.102903E+05 -1.068749E+05  2.069552E+05  0.000000E+00  0.000000E+00
       113  11 -3.922208E+05 -1.033750E+05 -9.911916E+04  2.257157E+05 -2.067952E-14  0.000000E+00
       113  12 -3.438485E+05 -9.246981E+04 -8.726367E+04  2.511665E+05 -2.584939E-15 -3.618915E-14
       113  13 -3.706373E+05 -1.182069E+05 -9.776885E+04  2.293844E+05  0.000000E+00  0.000000E+00
       113  14 -3.327167E+05 -1.145090E+05 -8.944515E+04  2.507919E+05 -4.135903E-14  4.135903E-14
       113  15 -2.740080E+05 -1.065142E+05 -7.610443E+04  2.806108E+05 -1.033976E-14  7.237830E-14
       113  16 -3.364262E+05 -1.432715E+05 -9.593952E+04  2.400143E+05 -2.067952E-14 -4.135903E-14
       113  17 -2.938694E+05 -1.454922E+05 -8.787234E+04  2.630756E+05 -2.067952E-14 -1.240771E-13
       113  18 -2.256271E+05 -1.436592E+05 -7.385727E+04  2.964212E+05  2.584939E-15 -1.550964E-14
       113  19 -4.240844E+05 -1.102903E+05 -1.068749E+05  2.069552E+05 -8.271806E-14  0.000000E+00
       113  20 -3.922208E+05 -1.033750E+05 -9.911916E+04  2.257157E+05  2.067952E-14  0.000000E+00
       113  21 -3.438485E+05 -9.246981E+04 -8.726367E+04  2.511665E+05 -3.618915E-14 -4.135903E-14
       113  22 -3.706373E+05 -1.182069E+05 -9.776885E+04  2.293844E+05 -1.654361E-13  3.308722E-13
       113  23 -3.327167E+05 -1.145090E+05 -8.944515E+04  2.507919E+05  1.654361E-13 -3.308722E-13
       113  24 -2.740080E+05 -1.065142E+05 -7.610443E+04  2.806108E+05 -1.447566E-13  6.203855E-13
       113  25 -3.364262E+05 -1.432715E+05 -9.593952E+04  2.400143E+05 -3.308722E-13 -6.617445E-13
       113  26 -2.938694E+05 -1.454922E+05 -8.787234E+04  2.630756E+05  1.654361E-13 -3.308722E-13
       113  27 -2.256271E+05 -1.436592E+05 -7.385727E+04  2.964212E+05 -2.895132E-13  7.444626E-13
       114   1 -3.258602E+05 -9.129496E+04 -8.343104E+04  2.702241E+05 -2.067952E-14 -8.271806E-14
       114   2 -1.511957E+05 -6.005409E+04 -4.224996E+04  3.360060E+05  4.135903E-14 -8.271806E-14
       114   3  4.359808E+05  7.254307E+04  1.017048E+05  4.875771E+05 -6.720842E-14  5.169879E-14
       114   4 -2.396158E+05 -1.009326E+05 -6.810967E+04  3.046259E+05 -8.271806E-14 -3.308722E-13
       114   5 -1.638074E+05 -1.420074E+05 -6.116295E+04  3.059208E+05 -4.135903E-14  9.926167E-13
       114   6  4.021717E+05 -7.083823E+04  6.626670E+04  3.995645E+05 -5.066481E-13  4.963084E-13
       114   7 -1.482045E+05 -1.041974E+05 -5.048037E+04  3.424757E+05  1.654361E-13  0.000000E+00
       114   8 -1.900742E+05 -2.320776E+05 -8.443035E+04  2.670477E+05  5.790264E-13  9.926167E-13
       114   9  3.540597E+05 -2.381239E+05  2.318716E+04  2.886082E+05  2.067952E-13  4.963084E-13
       114  10 -3.258602E+05 -9.129496E+04 -8.343104E+04  2.702241E+05  1.033976E-14  0.000000E+00
       114  11 -1.511957E+05 -6.005409E+04 -4.224996E+04  3.360060E+05  0.000000E+00 -2.067952E-14
       114  12  4.359808E+05  7.254307E+04  1.017048E+05  4.875771E+05 -1.421717E-14 -1.033976E-14
       114  13 -2.396158E+05 -1.009326E+05 -6.810967E+04  3.046259E+05  0.000000E+00 -8.271806E-14
       114  14 -1.638074E+05 -1.420074E+05 -6.116295E+04  3.059208E+05  2.067952E-14 -8.271806E-14
       114  15  4.021717E+05 -7.083823E+04  6.626670E+04  3.995645E+05  4.135903E-14  0.000000E+00
       114  16 -1.482045E+05 -1.041974E+05 -5.048037E+04  3.424757E+05  1.033976E-14  4.135903E-14
       114  17 -1.900742E+05 -2.320776E+05 -8.443035E+04  2.670477E+05  1.033976E-14 -1.447566E-13
       114  18  3.540597E+05 -2.381239E+05  2.318716E+04  2.886082E+05  2.714186E-14  6.203855E-14
       114  19 -3.258602E+05 -9.129496E+04 -8.343104E+04  2.702241E+05  2.067952E-14  8.271806E-14
       114  20 -1.511957E+05 -6.005409E+04 -4.224996E+04  3.360060E+05 -6.203855E-14 -8.271806E-14
       114  21  4.359808E+05  7.254307E+04  1.017048E+05  4.875771E+05 -9.822770E-14  1.137373E-13
       114  22 -2.396158E+05 -1.009326E+05 -6.810967E+04  3.046259E+05  0.000000E+00  3.308722E-13
       114  23 -1.638074E+05 -1.420074E+05 -6.116295E+04  3.059208E+05  4.135903E-14  0.000000E+00
       114  24  4.021717E+05 -7.083823E+04  6.626670E+04  3.995645E+05  1.033976E-14  1.654361E-13
       114  25 -1.482045E+05 -1.041974E+05 -5.048037E+04  3.424757E+05  0.000000E+00  6.617445E-13
       114  26 -1.900742E+05 -2.320776E+05 -8.443035E+04  2.670477E+05 -5.790264E-13  3.308722E-13
       114  27  3.540597E+05 -2.381239E+05  2.318716E+04  2.886082E+05 -2.067952E-13 -4.963084E-13
       115   1 -1.050305E+05 -1.306245E+05 -4.713100E+04  3.477131E+05 -7.237830E-14  1.158053E-12
       115   2 -3.737210E+04 -2.515659E+05 -5.778761E+04  2.753838E+05  4.342698E-13 -1.240771E-12
       115   3  1.672875E+05 -3.395781E+05 -3.445813E+04  2.014514E+05  8.465677E-13  8.271806E-14
       115   4 -9.935520E+04 -2.277588E+05 -6.542280E+04  2.920724E+05  1.654361E-13 -1.985233E-12
       115   5 -7.014682E+04 -3.234781E+05 -7.872499E+04  2.194968E+05  1.240771E-13  0.000000E+00
       115   6  6.287652E+04 -3.875036E+05 -6.492542E+04  1.276525E+05 -7.703119E-13 -2.729696E-12
       115   7 -1.002671E+05 -3.285535E+05 -8.576412E+04  2.333202E+05  2.481542E-13 -1.323489E-12
       115   8 -9.308695E+04 -3.761993E+05 -9.385725E+04  1.709931E+05  8.271806E-14 -3.970467E-12
       115   9 -2.374191E+04 -3.815990E+05 -8.106818E+04  6.818060E+04  4.963084E-13  4.963084E-13
       115  10 -1.050305E+05 -1.306245E+05 -4.713100E+04  3.477131E+05 -2.067952E-14 -1.654361E-13
       115  11 -3.737210E+04 -2.515659E+05 -5.778761E+04  2.753838E+05 -4.135903E-14 -8.271806E-14
       115  12  1.672875E+05 -3.395781E+05 -3.445813E+04  2.014514E+05  9.047288E-14  4.135903E-14
       115  13 -9.935520E+04 -2.277588E+05 -6.542280E+04  2.920724E+05  0.000000E+00  3.308722E-13
       115  14 -7.014682E+04 -3.234781E+05 -7.872499E+04  2.194968E+05  0.000000E+00  3.308722E-13
       115  15  6.287652E+04 -3.875036E+05 -6.492542E+04  1.276525E+05 -3.618915E-14 -4.135903E-14
       115  16 -1.002671E+05 -3.285535E+05 -8.576412E+04  2.333202E+05 -4.135903E-14 -1.654361E-13
       115  17 -9.308695E+04 -3.761993E+05 -9.385725E+04  1.709931E+05  2.067952E-14 -2.481542E-13
       115  18 -2.374191E+04 -3.815990E+05 -8.106818E+04  6.818060E+04  2.843433E-14  2.895132E-13
       115  19 -1.050305E+05 -1.306245E+05 -4.713100E+04  3.477131E+05 -1.033976E-14  1.654361E-13
       115  20 -3.737210E+04 -2.515659E+05 -5.778761E+04  2.753838E+05 -4.342698E-13 -8.271806E-14
       115  21  1.672875E+05 -3.395781E+05 -3.445813E+04  2.014514E+05  1.460491E-13  1.240771E-12
       115  22 -9.935520E+04 -2.277588E+05 -6.542280E+04  2.920724E+05 -2.481542E-13  1.985233E-12
       115  23 -7.014682E+04 -3.234781E+05 -7.872499E+04  2.194968E+05  2.067952E-13  1.323489E-12
       115  24  6.287652E+04 -3.875036E+05 -6.492542E+04  1.276525E+05  7.703119E-13  1.406207E-12
       115  25 -1.002671E+05 -3.285535E+05 -8.576412E+04  2.333202E+05 -2.481542E-13 -1.323489E-12
       115  26 -9.308695E+04 -3.761993E+05 -9.385725E+04  1.709931E+05 -4.135903E-13  1.323489E-12
       115  27 -2.374191E+04 -3.815990E+05 -8.106818E+04  6.818060E+04 -4.963084E-13  8.271806E-13
       116   1 -3.011713E+05 -1.608963E+05 -9.241353E+04  2.472194E+05  3.308722E-13 -4.963084E-13
       116   2 -2.923418E+05 -1.741619E+05 -9.330074E+04  2.652675E+05  7.858216E-13  8.271806E-14
       116   3 -2.611533E+05 -1.841935E+05 -8.906936E+04  2.902822E+05  6.720842E-14 -2.088631E-12
       116   4 -2.297535E+05 -1.961346E+05 -8.517762E+04  2.566569E+05  1.654361E-13 -2.646978E-12
       116   5 -2.085267E+05 -2.112603E+05 -8.395740E+04  2.674508E+05  0.000000E+00 -1.654361E-12
       116   6 -1.563616E+05 -2.227168E+05 -7.581568E+04  2.842773E+05  3.515518E-13  5.790264E-13
       116   7 -2.067421E+05 -2.565292E+05 -9.265426E+04  2.472786E+05  3.308722E-13  1.323489E-12
       116   8 -1.785072E+05 -2.769452E+05 -9.109049E+04  2.479296E+05  3.308722E-13 -6.617445E-13
       116   9 -1.098349E+05 -2.942193E+05 -8.081084E+04  2.524685E+05  4.135903E-13 -3.308722E-13
       116  10 -3.011713E+05 -1.608963E+05 -9.241353E+04  2.472194E+05  4.135903E-14 -1.654361E-13
       116  11 -2.923418E+05 -1.741619E+05 -9.330074E+04  2.652675E+05 -1.033976E-13  0.000000E+00
       116  12 -2.611533E+05 -1.841935E+05 -8.906936E+04  2.902822E+05 -1.550964E-14  2.067952E-13
       116  13 -2.297535E+05 -1.961346E+05 -8.517762E+04  2.566569E+05  0.000000E+00 -6.617445E-13
       116  14 -2.085267E+05 -2.112603E+05 -8.395740E+04  2.674508E+05 -2.481542E-13 -4.963084E-13
       116  15 -1.563616E+05 -2.227168E+05 -7.581568E+04  2.842773E+05  0.000000E+00 -8.271806E-14
       116  16 -2.067421E+05 -2.565292E+05 -9.265426E+04  2.472786E+05 -4.135903E-14 -1.654361E-13
       116  17 -1.785072E+05 -2.769452E+05 -9.109049E+04  2.479296E+05  6.203855E-14 -8.271806E-13
       116  18 -1.098349E+05 -2.942193E+05 -8.081084E+04  2.524685E+05 -3.101927E-14  4.342698E-13
       116  19 -3.011713E+05 -1.608963E+05 -9.241353E+04  2.472194E+05 -6.617445E-13 -8.271806E-13
       116  20 -2.923418E+05 -1.741619E+05 -9.330074E+04  2.652675E+05 -7.858216E-13  5.790264E-13
       116  21 -2.611533E+05 -1.841935E+05 -8.906936E+04  2.902822E+05 -6.720842E-14  7.651421E-13
       116  22 -2.297535E+05 -1.961346E+05 -8.517762E+04  2.566569E+05 -1.654361E-13  1.323489E-12
       116  23 -2.085267E+05 -2.112603E+05 -8.395740E+04  2.674508E+05  0.000000E+00  1.654361E-12
       116  24 -1.563616E+05 -2.227168E+05 -7.581568E+04  2.842773E+05  1.447566E-13  7.444626E-13
       116  25 -2.067421E+05 -2.565292E+05 -9.265426E+04  2.472786E+05 -3.308722E-13 -1.323489E-12
       116  26 -1.785072E+05 -2.769452E+05 -9.109049E+04  2.479296E+05 -6.617445E-13  3.308722E-12
       116  27 -1.098349E+05 -2.942193E+05 -8.081084E+04  2.524685E+05 -4.135903E-13 -2.316106E-12
       117   1 -2.045622E+05 -2.523692E+05 -9.138627E+04  1.548108E+05  9.512577E-13  6.948317E-12
       117   2 -2.010382E+05 -2.845419E+05 -9.711603E+04  1.553147E+05  8.375204E-13 -8.106370E-12
       117   3 -1.918979E+05 -2.986848E+05 -9.811654E+04  1.603098E+05 -3.541367E-13  1.654361E-13
       117   4 -2.214988E+05 -2.664069E+05 -9.758114E+04  1.369723E+05  8.271806E-14  6.617445E-12
       117   5 -2.129403E+05 -3.031127E+05 -1.032106E+05  1.391581E+05 -5.790264E-13 -1.985233E-12
       117   6 -1.977388E+05 -3.180643E+05 -1.031606E+05  1.467179E+05  3.205325E-13  4.963084E-13
       117   7 -2.422319E+05 -2.852310E+05 -1.054926E+05  1.216702E+05  9.926167E-13 -5.293956E-12
       117   8 -2.272617E+05 -3.286773E+05 -1.111878E+05  1.259708E+05  4.135903E-13 -3.970467E-12
       117   9 -2.043696E+05 -3.454706E+05 -1.099680E+05  1.367720E+05  2.688337E-13  1.985233E-12
       117  10 -2.045622E+05 -2.523692E+05 -9.138627E+04  1.548108E+05  0.000000E+00  6.617445E-13
       117  11 -2.010382E+05 -2.845419E+05 -9.711603E+04  1.553147E+05  1.654361E-13  4.963084E-13
       117  12 -1.918979E+05 -2.986848E+05 -9.811654E+04  1.603098E+05  5.169879E-15  3.308722E-13
       117  13 -2.214988E+05 -2.664069E+05 -9.758114E+04  1.369723E+05 -1.654361E-13  1.323489E-12
       117  14 -2.129403E+05 -3.031127E+05 -1.032106E+05  1.391581E+05 -1.654361E-13  6.617445E-13
       117  15 -1.977388E+05 -3.180643E+05 -1.031606E+05  1.467179E+05  0.000000E+00  3.308722E-13
       117  16 -2.422319E+05 -2.852310E+05 -1.054926E+05  1.216702E+05  0.000000E+00 -3.308722E-13
       117  17 -2.272617E+05 -3.286773E+05 -1.111878E+05  1.259708E+05  0.000000E+00  8.271806E-13
       117  18 -2.043696E+05 -3.454706E+05 -1.099680E+05  1.367720E+05  3.618915E-14  1.240771E-13
       117  19 -2.045622E+05 -2.523692E+05 -9.138627E+04  1.548108E+05 -9.512577E-13  9.926167E-13
       117  20 -2.010382E+05 -2.845419E+05 -9.711603E+04  1.553147E+05 -8.375204E-13  1.654361E-13
       117  21 -1.918979E+05 -2.986848E+05 -9.811654E+04  1.603098E+05 -3.076078E-13 -1.654361E-13
       117  22 -2.214988E+05 -2.664069E+05 -9.758114E+04  1.369723E+05 -7.444626E-13 -1.323489E-12
       117  23 -2.129403E+05 -3.031127E+05 -1.032106E+05  1.391581E+05 -4.135903E-13 -6.617445E-13
       117  24 -1.977388E+05 -3.180643E+05 -1.031606E+05  1.467179E+05  1.033976E-14 -4.963084E-13
       117  25 -2.422319E+05 -2.852310E+05 -1.054926E+05  1.216702E+05 -1.323489E-12  5.293956E-12
       117  26 -2.272617E+05 -3.286773E+05 -1.111878E+05  1.259708E+05 -4.135903E-13 -1.323489E-12
       117  27 -2.043696E+05 -3.454706E+05 -1.099680E+05  1.367720E+05 -2.688337E-13 -1.985233E-12
       118   1 -1.853943E+05 -3.048407E+05 -9.804701E+04  1.696863E+05  3.618915E-13 -1.323489E-12
       118   2 -1.861725E+05 -3.021606E+05 -9.766662E+04  1.955435E+05  5.169879E-13 -1.985233E-12
       118   3 -1.812117E+05 -2.822513E+05 -9.269261E+04  2.269264E+05  9.086062E-13  1.033976E-12
       118   4 -1.885912E+05 -3.288698E+05 -1.034922E+05  1.596648E+05  4.135903E-13 -1.323489E-12
       118   5 -1.777065E+05 -3.276388E+05 -1.010691E+05  1.875699E+05  4.135903E-14 -6.617445E-13
       118   6 -1.601977E+05 -3.063436E+05 -9.330827E+04  2.222897E+05  4.342698E-13  6.286573E-12
       118   7 -1.887023E+05 -3.550039E+05 -1.087412E+05  1.503211E+05  4.963084E-13  0.000000E+00
       118   8 -1.627983E+05 -3.552650E+05 -1.036127E+05  1.808667E+05  5.376674E-13 -1.323489E-12
       118   9 -1.292522E+05 -3.318290E+05 -9.221623E+04  2.198577E+05  8.375204E-13 -5.955700E-12
       118  10 -1.853943E+05 -3.048407E+05 -9.804701E+04  1.696863E+05  0.000000E+00  0.000000E+00
       118  11 -1.861725E+05 -3.021606E+05 -9.766662E+04  1.955435E+05  1.861156E-13 -3.308722E-13
       118  12 -1.812117E+05 -2.822513E+05 -9.269261E+04  2.269264E+05 -1.033976E-14 -2.067952E-13
       118  13 -1.885912E+05 -3.288698E+05 -1.034922E+05  1.596648E+05  0.000000E+00  6.617445E-13
       118  14 -1.777065E+05 -3.276388E+05 -1.010691E+05  1.875699E+05  1.240771E-13  6.617445E-13
       118  15 -1.601977E+05 -3.063436E+05 -9.330827E+04  2.222897E+05 -8.271806E-14  4.963084E-13
       118  16 -1.887023E+05 -3.550039E+05 -1.087412E+05  1.503211E+05  0.000000E+00 -3.308722E-13
       118  17 -1.627983E+05 -3.552650E+05 -1.036127E+05  1.808667E+05  1.033976E-13  6.617445E-13
       118  18 -1.292522E+05 -3.318290E+05 -9.221623E+04  2.198577E+05  6.720842E-14  8.271806E-14
       118  19 -1.853943E+05 -3.048407E+05 -9.804701E+04  1.696863E+05 -1.023636E-12  1.323489E-12
       118  20 -1.861725E+05 -3.021606E+05 -9.766662E+04  1.955435E+05 -1.861156E-13 -6.617445E-13
       118  21 -1.812117E+05 -2.822513E+05 -9.269261E+04  2.269264E+05  8.401053E-14 -1.033976E-12
       118  22 -1.885912E+05 -3.288698E+05 -1.034922E+05  1.596648E+05 -7.444626E-13 -3.970467E-12
       118  23 -1.777065E+05 -3.276388E+05 -1.010691E+05  1.875699E+05 -4.135903E-14 -1.985233E-12
       118  24 -1.601977E+05 -3.063436E+05 -9.330827E+04  2.222897E+05 -7.651421E-13  3.308722E-13
       118  25 -1.887023E+05 -3.550039E+05 -1.087412E+05  1.503211E+05 -3.308722E-13  2.646978E-12
       118  26 -1.627983E+05 -3.552650E+05 -1.036127E+05  1.808667E+05 -7.031035E-13 -1.323489E-12
       118  27 -1.292522E+05 -3.318290E+05 -9.221623E+04  2.198577E+05 -6.720842E-13  6.617445E-13
       119   1 -1.921605E+05 -3.738616E+05 -1.132044E+05  1.388425E+05  4.135903E-13 -3.308722E-12
       119   2 -1.579637E+05 -3.705832E+05 -1.057094E+05  1.640310E+05  3.308722E-13 -8.271806E-13
       119   3 -1.199180E+05 -3.564225E+05 -9.526811E+04  1.953515E+05  5.169879E-13 -1.033976E-12
       119   4 -2.111251E+05 -3.902139E+05 -1.202678E+05  8.573440E+04  6.617445E-13 -2.646978E-12
       119   5 -1.636462E+05 -3.878849E+05 -1.103062E+05  1.043231E+05  0.000000E+00  0.000000E+00
       119   6 -1.123440E+05 -3.741318E+05 -9.729516E+04  1.307097E+05 -4.135903E-14 -1.323489E-12
       119   7 -2.418918E+05 -4.120766E+05 -1.307937E+05  3.698342E+04  0.000000E+00 -5.293956E-12
       119   8 -1.735744E+05 -4.086643E+05 -1.164478E+05  4.713277E+04  0.000000E+00  1.323489E-12
       119   9 -1.018796E+05 -3.931571E+05 -9.900734E+04  6.757929E+04  4.135903E-13  2.977850E-12
       119  10 -1.921605E+05 -3.738616E+05 -1.132044E+05  1.388425E+05 -4.135903E-14  0.000000E+00
       119  11 -1.579637E+05 -3.705832E+05 -1.057094E+05  1.640310E+05 -2.067952E-14  0.000000E+00
       119  12 -1.199180E+05 -3.564225E+05 -9.526811E+04  1.953515E+05 -5.169879E-15 -1.240771E-13
       119  13 -2.111251E+05 -3.902139E+05 -1.202678E+05  8.573440E+04 -1.240771E-13  6.617445E-13
       119  14 -1.636462E+05 -3.878849E+05 -1.103062E+05  1.043231E+05 -4.135903E-14 -6.617445E-13
       119  15 -1.123440E+05 -3.741318E+05 -9.729516E+04  1.307097E+05 -1.602662E-13  1.158053E-12
       119  16 -2.418918E+05 -4.120766E+05 -1.307937E+05  3.698342E+04 -8.271806E-14 -3.308722E-13
       119  17 -1.735744E+05 -4.086643E+05 -1.164478E+05  4.713277E+04 -6.203855E-14  3.308722E-13
       119  18 -1.018796E+05 -3.931571E+05 -9.900734E+04  6.757929E+04 -8.788794E-14 -2.067952E-13
       119  19 -1.921605E+05 -3.738616E+05 -1.132044E+05  1.388425E+05 -5.790264E-13  3.308722E-12
       119  20 -1.579637E+05 -3.705832E+05 -1.057094E+05  1.640310E+05 -4.135903E-13  8.271806E-13
       119  21 -1.199180E+05 -3.564225E+05 -9.526811E+04  1.953515E+05 -5.169879E-13  1.033976E-12
       119  22 -2.111251E+05 -3.902139E+05 -1.202678E+05  8.573440E+04 -6.617445E-13 -2.646978E-12
       119  23 -1.636462E+05 -3.878849E+05 -1.103062E+05  1.043231E+05  0.000000E+00  0.000000E+00
       119  24 -1.123440E+05 -3.741318E+05 -9.729516E+04  1.307097E+05  3.722313E-13  1.323489E-12
       119  25 -2.418918E+05 -4.120766E+05 -1.307937E+05  3.698342E+04  0.000000E+00  2.646978E-12
       119  26 -1.735744E+05 -4.086643E+05 -1.164478E+05  4.713277E+04  0.000000E+00 -1.323489E-12
       119  27 -1.018796E+05 -3.931571E+05 -9.900734E+04  6.757929E+04  2.481542E-13  9.926167E-13
       120   1 -2.628969E+05 -3.213888E+05 -1.168571E+05  1.157122E+05  1.240771E-12 -1.654361E-12
       120   2 -2.404147E+05 -3.515557E+05 -1.183941E+05  1.192218E+05  4.342698E-13  1.654361E-12
       120   3 -2.132321E+05 -3.663828E+05 -1.159230E+05  1.276385E+05  6.772541E-13  3.722313E-12
       120   4 -3.038892E+05 -3.431935E+05 -1.294165E+05  6.661965E+04  9.926167E-13 -3.970467E-12
       120   5 -2.735301E+05 -3.713464E+05 -1.289753E+05  6.816783E+04  3.308722E-13 -2.646978E-12
       120   6 -2.380037E+05 -3.816991E+05 -1.239406E+05  7.567669E+04  1.013296E-12 -1.654361E-13
       120   7 -3.593284E+05 -3.869870E+05 -1.492631E+05  2.811358E+04  6.617445E-13  0.000000E+00
       120   8 -3.167281E+05 -4.122404E+05 -1.457937E+05  2.682436E+04 -3.308722E-13 -3.970467E-12
       120   9 -2.685265E+05 -4.161189E+05 -1.369291E+05  3.309958E+04 -4.549493E-13 -4.632211E-12
       120  10 -2.628969E+05 -3.213888E+05 -1.168571E+05  1.157122E+05 -7.754818E-15  0.000000E+00
       120  11 -2.404147E+05 -3.515557E+05 -1.183941E+05  1.192218E+05  7.754818E-15  1.654361E-13
       120  12 -2.132321E+05 -3.663828E+05 -1.159230E+05  1.276385E+05 -1.841769E-14  3.308722E-13
       120  13 -3.038892E+05 -3.431935E+05 -1.294165E+05  6.661965E+04 -5.169879E-15 -6.617445E-13
       120  14 -2.735301E+05 -3.713464E+05 -1.289753E+05  6.816783E+04  1.809458E-14  1.985233E-12
       120  15 -2.380037E+05 -3.816991E+05 -1.239406E+05  7.567669E+04 -3.683539E-14  4.135903E-13
       120  16 -3.593284E+05 -3.869870E+05 -1.492631E+05  2.811358E+04  2.584939E-15  0.000000E+00
       120  17 -3.167281E+05 -4.122404E+05 -1.457937E+05  2.682436E+04 -1.033976E-14 -3.308722E-13
       120  18 -2.685265E+05 -4.161189E+05 -1.369291E+05  3.309958E+04 -1.108293E-13  0.000000E+00
       120  19 -2.628969E+05 -3.213888E+05 -1.168571E+05  1.157122E+05 -1.406207E-12  4.301339E-12
       120  20 -2.404147E+05 -3.515557E+05 -1.183941E+05  1.192218E+05 -3.515518E-13  3.639595E-12
       120  21 -2.132321E+05 -3.663828E+05 -1.159230E+05  1.276385E+05 -5.945361E-13 -9.016269E-12
       120  22 -3.038892E+05 -3.431935E+05 -1.294165E+05  6.661965E+04 -8.271806E-13  1.323489E-12
       120  23 -2.735301E+05 -3.713464E+05 -1.289753E+05  6.816783E+04  0.000000E+00 -2.646978E-12
       120  24 -2.380037E+05 -3.816991E+05 -1.239406E+05  7.567669E+04 -1.013296E-12 -2.481542E-12
       120  25 -3.593284E+05 -3.869870E+05 -1.492631E+05  2.811358E+04 -9.926167E-13  0.000000E+00
       120  26 -3.167281E+05 -4.122404E+05 -1.457937E+05  2.682436E+04  0.000000E+00  1.323489E-12
       120  27 -2.685265E+05 -4.161189E+05 -1.369291E+05  3.309958E+04  4.549493E-13  4.632211E-12
       121   1 -2.627927E+05 -1.611380E+05 -8.478614E+04  1.809087E+03  7.279189E-12 -1.852885E-11
       121   2 -2.451358E+05 -1.486985E+05 -7.876685E+04 -3.291564E+01  9.926167E-13  6.617445E-12
       121   3 -2.279923E+05 -1.381530E+05 -7.322906E+04 -1.404948E+02 -2.646978E-12  7.610062E-12
       121   4 -2.495684E+05 -1.544361E+05 -8.080089E+04  4.699973E+03  5.293956E-12  0.000000E+00
       121   5 -2.334101E+05 -1.439579E+05 -7.547361E+04  1.891150E+03 -5.293956E-12  2.117582E-11
       121   6 -2.173878E+05 -1.342957E+05 -7.033670E+04  1.918207E+02  5.624828E-12  9.264423E-12
       121   7 -2.361461E+05 -1.468100E+05 -7.659123E+04  7.301274E+03 -1.588187E-11 -2.117582E-11
       121   8 -2.223236E+05 -1.390621E+05 -7.227714E+04  3.919482E+03  7.940934E-12 -1.058791E-11
       121   9 -2.083342E+05 -1.309124E+05 -6.784931E+04  9.301681E+02  4.632211E-12 -2.117582E-11
       121  10 -2.627927E+05 -1.611380E+05 -8.478614E+04  1.809087E+03  6.617445E-13 -2.646978E-12
       121  11 -2.451358E+05 -1.486985E+05 -7.876685E+04 -3.291564E+01 -6.617445E-13 -2.646978E-12
       121  12 -2.279923E+05 -1.381530E+05 -7.322906E+04 -1.404948E+02 -8.271806E-14 -3.970467E-12
       121  13 -2.495684E+05 -1.544361E+05 -8.080089E+04  4.699973E+03  1.323489E-12 -5.293956E-12
       121  14 -2.334101E+05 -1.439579E+05 -7.547361E+04  1.891150E+03  3.970467E-12  2.646978E-12
       121  15 -2.173878E+05 -1.342957E+05 -7.033670E+04  1.918207E+02 -1.654361E-13 -1.124966E-11
       121  16 -2.361461E+05 -1.468100E+05 -7.659123E+04  7.301274E+03 -6.617445E-13  0.000000E+00
       121  17 -2.223236E+05 -1.390621E+05 -7.227714E+04  3.919482E+03  0.000000E+00 -3.970467E-12
       121  18 -2.083342E+05 -1.309124E+05 -6.784931E+04  9.301681E+02  4.963084E-13 -3.639595E-12
       121  19 -2.627927E+05 -1.611380E+05 -8.478614E+04  1.809087E+03 -1.257315E-11  1.852885E-11
       121  20 -2.451358E+05 -1.486985E+05 -7.876685E+04 -3.291564E+01 -1.158053E-11  1.455838E-11
       121  21 -2.279923E+05 -1.381530E+05 -7.322906E+04 -1.404948E+02 -1.323489E-11  3.474159E-11
       121  22 -2.495684E+05 -1.544361E+05 -8.080089E+04  4.699973E+03 -5.293956E-12  0.000000E+00
       121  23 -2.334101E+05 -1.439579E+05 -7.547361E+04  1.891150E+03  5.293956E-12 -6.352747E-11
       121  24 -2.173878E+05 -1.342957E+05 -7.033670E+04  1.918207E+02  4.963084E-12 -9.264423E-12
       121  25 -2.361461E+05 -1.468100E+05 -7.659123E+04  7.301274E+03 -5.293956E-12  2.117582E-11
       121  26 -2.223236E+05 -1.390621E+05 -7.227714E+04  3.919482E+03  7.940934E-12  1.058791E-11
       121  27 -2.083342E+05 -1.309124E+05 -6.784931E+04  9.301681E+02 -4.632211E-12  2.117582E-11
       122   1 -2.106711E+05 -1.271920E+05 -6.757263E+04 -3.158774E+03  2.051408E-11  6.352747E-11
       122   2 -1.835483E+05 -1.177231E+05 -6.025427E+04 -1.632293E+03  3.308722E-12  3.838118E-11
       122   3 -1.574173E+05 -1.121242E+05 -5.390830E+04  9.579522E+02 -7.196471E-12 -3.242548E-11
       122   4 -2.049056E+05 -1.258280E+05 -6.614672E+04 -1.588617E+03  7.940934E-12  4.235165E-11
       122   5 -1.809920E+05 -1.169157E+05 -5.958154E+04 -5.822312E+02 -5.293956E-12  2.646978E-11
       122   6 -1.582706E+05 -1.127335E+05 -5.420082E+04  2.207291E+02  9.926167E-13 -2.779327E-11
       122   7 -1.983091E+05 -1.243705E+05 -6.453593E+04 -4.295175E+01 -5.293956E-12 -4.235165E-11
       122   8 -1.787226E+05 -1.161805E+05 -5.898061E+04  4.757261E+02  2.646978E-12  1.058791E-11
       122   9 -1.609450E+05 -1.139697E+05 -5.498295E+04 -9.667257E+02  1.257315E-11 -8.205632E-11
       122  10 -2.106711E+05 -1.271920E+05 -6.757263E+04 -3.158774E+03 -6.617445E-13  0.000000E+00
       122  11 -1.835483E+05 -1.177231E+05 -6.025427E+04 -1.632293E+03 -2.316106E-12  1.323489E-12
       122  12 -1.574173E+05 -1.121242E+05 -5.390830E+04  9.579522E+02  2.150670E-12  3.970467E-12
       122  13 -2.049056E+05 -1.258280E+05 -6.614672E+04 -1.588617E+03 -2.646978E-12  5.293956E-12
       122  14 -1.809920E+05 -1.169157E+05 -5.958154E+04 -5.822312E+02  0.000000E+00 -5.293956E-12
       122  15 -1.582706E+05 -1.127335E+05 -5.420082E+04  2.207291E+02 -3.639595E-12 -2.646978E-12
       122  16 -1.983091E+05 -1.243705E+05 -6.453593E+04 -4.295175E+01  0.000000E+00  2.646978E-12
       122  17 -1.787226E+05 -1.161805E+05 -5.898061E+04  4.757261E+02  9.926167E-13 -5.293956E-12
       122  18 -1.609450E+05 -1.139697E+05 -5.498295E+04 -9.667257E+02 -1.488925E-12 -3.970467E-12
       122  19 -2.106711E+05 -1.271920E+05 -6.757263E+04 -3.158774E+03 -9.926167E-12 -4.235165E-11
       122  20 -1.835483E+05 -1.177231E+05 -6.025427E+04 -1.632293E+03 -8.602678E-12  3.970467E-12
       122  21 -1.574173E+05 -1.121242E+05 -5.390830E+04  9.579522E+02 -3.391441E-12  3.242548E-11
       122  22 -2.049056E+05 -1.258280E+05 -6.614672E+04 -1.588617E+03 -7.940934E-12  0.000000E+00
       122  23 -1.809920E+05 -1.169157E+05 -5.958154E+04 -5.822312E+02  5.293956E-12 -2.646978E-11
       122  24 -1.582706E+05 -1.127335E+05 -5.420082E+04  2.207291E+02 -9.926167E-13  2.779327E-11
       122  25 -1.983091E+05 -1.243705E+05 -6.453593E+04 -4.295175E+01  5.293956E-12 -2.117582E-11
       122  26 -1.787226E+05 -1.161805E+05 -5.898061E+04  4.757261E+02 -2.646978E-12 -1.058791E-11
       122  27 -1.609450E+05 -1.139697E+05 -5.498295E+04 -9.667257E+02  8.602678E-12  3.970467E-11
       123   1 -1.950055E+05 -1.233900E+05 -6.367909E+04  7.373246E+02  1.257315E-11 -5.293956E-11
       123   2 -1.783716E+05 -1.175975E+05 -5.919381E+04 -5.693204E+02  5.293956E-12 -1.323489E-12
       123   3 -1.618086E+05 -1.133198E+05 -5.502567E+04 -7.520657E+02  1.488925E-11  2.448455E-11
       123   4 -1.902759E+05 -1.210913E+05 -6.227345E+04  2.088196E+03 -2.646978E-12  2.117582E-11
       123   5 -1.762477E+05 -1.164634E+05 -5.854222E+04  8.606207E+02  7.940934E-12  1.058791E-11
       123   6 -1.624626E+05 -1.132944E+05 -5.515139E+04 -2.076815E+02 -6.617445E-13  1.323489E-12
       123   7 -1.841686E+05 -1.183572E+05 -6.050516E+04  3.140293E+03  5.293956E-12  2.117582E-11
       123   8 -1.741476E+05 -1.153309E+05 -5.789571E+04  2.230315E+03  0.000000E+00  2.117582E-11
       123   9 -1.655430E+05 -1.139312E+05 -5.589485E+04 -1.149949E+02  3.904292E-11 -7.146840E-11
       123  10 -1.950055E+05 -1.233900E+05 -6.367909E+04  7.373246E+02  6.617445E-13 -2.646978E-12
       123  11 -1.783716E+05 -1.175975E+05 -5.919381E+04 -5.693204E+02 -6.617445E-13  5.293956E-12
       123  12 -1.618086E+05 -1.133198E+05 -5.502567E+04 -7.520657E+02  1.819797E-12  5.293956E-12
       123  13 -1.902759E+05 -1.210913E+05 -6.227345E+04  2.088196E+03  0.000000E+00  0.000000E+00
       123  14 -1.762477E+05 -1.164634E+05 -5.854222E+04  8.606207E+02  1.323489E-12  0.000000E+00
       123  15 -1.624626E+05 -1.132944E+05 -5.515139E+04 -2.076815E+02  1.654361E-12 -8.602678E-12
       123  16 -1.841686E+05 -1.183572E+05 -6.050516E+04  3.140293E+03 -1.323489E-12  2.646978E-12
       123  17 -1.741476E+05 -1.153309E+05 -5.789571E+04  2.230315E+03 -6.617445E-13  0.000000E+00
       123  18 -1.655430E+05 -1.139312E+05 -5.589485E+04 -1.149949E+02  4.963084E-13  7.940934E-12
       123  19 -1.950055E+05 -1.233900E+05 -6.367909E+04  7.373246E+02 -1.985233E-12  3.176374E-11
       123  20 -1.783716E+05 -1.175975E+05 -5.919381E+04 -5.693204E+02 -5.293956E-12  1.323489E-12
       123  21 -1.618086E+05 -1.133198E+05 -5.502567E+04 -7.520657E+02 -1.488925E-11 -3.308722E-12
       123  22 -1.902759E+05 -1.210913E+05 -6.227345E+04  2.088196E+03 -7.940934E-12 -2.117582E-11
       123  23 -1.762477E+05 -1.164634E+05 -5.854222E+04  8.606207E+02  2.646978E-12 -1.058791E-11
       123  24 -1.624626E+05 -1.132944E+05 -5.515139E+04 -2.076815E+02  6.617445E-13  1.985233E-11
       123  25 -1.841686E+05 -1.183572E+05 -6.050516E+04  3.140293E+03  5.293956E-12 -4.235165E-11
       123  26 -1.741476E+05 -1.153309E+05 -5.789571E+04  2.230315E+03 -1.058791E-11  0.000000E+00
       123  27 -1.655430E+05 -1.139312E+05 -5.589485E+04 -1.149949E+02 -2.845501E-11  5.029258E-11
       124   1 -2.289074E+05 -1.431328E+05 -7.440804E+04  9.848583E+03  3.970467E-12 -3.176374E-11
       124   2 -2.161237E+05 -1.350491E+05 -7.023456E+04  5.503928E+03  1.257315E-11  2.514629E-11
       124   3 -2.032146E+05 -1.274562E+05 -6.613416E+04  2.093227E+03  8.768114E-12 -3.044025E-11
       124   4 -2.176899E+05 -1.358020E+05 -7.069839E+04  1.035911E+04  1.058791E-11  1.058791E-11
       124   5 -2.068407E+05 -1.301511E+05 -6.739835E+04  6.282969E+03  2.646978E-12  2.117582E-11
       124   6 -1.955964E+05 -1.237874E+05 -6.387675E+04  2.720997E+03  5.293956E-12 -2.117582E-11
       124   7 -2.053044E+05 -1.268304E+05 -6.642697E+04  1.005165E+04  2.117582E-11  2.117582E-11
       124   8 -1.974660E+05 -1.248426E+05 -6.446171E+04  6.893797E+03  1.323489E-11  5.293956E-11
       124   9 -1.892108E+05 -1.208201E+05 -6.200617E+04  3.864688E+03  1.852885E-11 -1.323489E-11
       124  10 -2.289074E+05 -1.431328E+05 -7.440804E+04  9.848583E+03 -6.617445E-13  0.000000E+00
       124  11 -2.161237E+05 -1.350491E+05 -7.023456E+04  5.503928E+03 -3.308722E-12 -5.293956E-12
       124  12 -2.032146E+05 -1.274562E+05 -6.613416E+04  2.093227E+03 -3.308722E-13  5.624828E-12
       124  13 -2.176899E+05 -1.358020E+05 -7.069839E+04  1.035911E+04 -2.646978E-12 -1.588187E-11
       124  14 -2.068407E+05 -1.301511E+05 -6.739835E+04  6.282969E+03 -1.323489E-12 -1.323489E-11
       124  15 -1.955964E+05 -1.237874E+05 -6.387675E+04  2.720997E+03  4.301339E-12 -5.955700E-12
       124  16 -2.053044E+05 -1.268304E+05 -6.642697E+04  1.005165E+04 -6.617445E-13  2.646978E-12
       124  17 -1.974660E+05 -1.248426E+05 -6.446171E+04  6.893797E+03 -6.617445E-13  5.293956E-12
       124  18 -1.892108E+05 -1.208201E+05 -6.200617E+04  3.864688E+03 -1.654361E-13 -2.316106E-12
       124  19 -2.289074E+05 -1.431328E+05 -7.440804E+04  9.848583E+03  6.617445E-12  1.058791E-11
       124  20 -2.161237E+05 -1.350491E+05 -7.023456E+04  5.503928E+03 -7.279189E-12  1.720536E-11
       124  21 -2.032146E+05 -1.274562E+05 -6.613416E+04  2.093227E+03 -2.464998E-11  7.279189E-11
       124  22 -2.176899E+05 -1.358020E+05 -7.069839E+04  1.035911E+04 -1.058791E-11  3.176374E-11
       124  23 -2.068407E+05 -1.301511E+05 -6.739835E+04  6.282969E+03  7.940934E-12  2.117582E-11
       124  24 -1.955964E+05 -1.237874E+05 -6.387675E+04  2.720997E+03 -1.588187E-11  2.117582E-11
       124  25 -2.053044E+05 -1.268304E+05 -6.642697E+04  1.005165E+04 -2.117582E-11 -2.117582E-11
       124  26 -1.974660E+05 -1.248426E+05 -6.446171E+04  6.893797E+03 -2.646978E-12  1.058791E-11
       124  27 -1.892108E+05 -1.208201E+05 -6.200617E+04  3.864688E+03 -7.940934E-12 -2.911676E-11
       125   1 -1.192353E+05 -1.185500E+05 -4.755705E+04  1.717028E+04 -2.895132E-12  2.825339E-12
       125   2 -1.160045E+05 -1.135115E+05 -4.590320E+04  1.331993E+04 -1.912855E-12  2.332908E-12
       125   3 -1.106799E+05 -1.095231E+05 -4.404061E+04  9.755005E+03 -2.455692E-12  2.608204E-12
       125   4 -1.217288E+05 -1.133449E+05 -4.701473E+04  1.437516E+04 -2.067952E-12  2.378144E-12
       125   5 -1.185240E+05 -1.090717E+05 -4.551913E+04  1.036342E+04  8.271806E-14 -9.305782E-14
       125   6 -1.129237E+05 -1.053765E+05 -4.366004E+04  6.771583E+03 -1.871496E-12  2.327738E-12
       125   7 -1.240776E+05 -1.075098E+05 -4.631748E+04  1.165169E+04 -1.654361E-12  2.460862E-12
       125   8 -1.209930E+05 -1.041934E+05 -4.503729E+04  7.395402E+03 -1.488925E-12  2.067952E-12
       125   9 -1.152300E+05 -1.010282E+05 -4.325162E+04  3.669872E+03 -1.840477E-12  2.383314E-12
       125  10 -1.192353E+05 -1.185500E+05 -4.755705E+04  1.717028E+04 -8.271806E-14 -5.169879E-15
       125  11 -1.160045E+05 -1.135115E+05 -4.590320E+04  1.331993E+04  8.271806E-14  2.326445E-14
       125  12 -1.106799E+05 -1.095231E+05 -4.404061E+04  9.755005E+03 -2.584939E-14 -3.231174E-15
       125  13 -1.217288E+05 -1.133449E+05 -4.701473E+04  1.437516E+04  0.000000E+00 -1.033976E-14
       125  14 -1.185240E+05 -1.090717E+05 -4.551913E+04  1.036342E+04 -4.135903E-14  0.000000E+00
       125  15 -1.129237E+05 -1.053765E+05 -4.366004E+04  6.771583E+03 -3.101927E-14 -5.169879E-15
       125  16 -1.240776E+05 -1.075098E+05 -4.631748E+04  1.165169E+04  8.271806E-14 -2.584939E-15
       125  17 -1.209930E+05 -1.041934E+05 -4.503729E+04  7.395402E+03  0.000000E+00  2.584939E-14
       125  18 -1.152300E+05 -1.010282E+05 -4.325162E+04  3.669872E+03  5.169879E-15  5.816114E-15
       125  19 -1.192353E+05 -1.185500E+05 -4.755705E+04  1.717028E+04  2.895132E-12 -2.783980E-12
       125  20 -1.160045E+05 -1.135115E+05 -4.590320E+04  1.331993E+04  1.912855E-12 -2.498344E-12
       125  21 -1.106799E+05 -1.095231E+05 -4.404061E+04  9.755005E+03  2.124820E-12 -2.608204E-12
       125  22 -1.217288E+05 -1.133449E+05 -4.701473E+04  1.437516E+04  1.075335E-12 -2.378144E-12
       125  23 -1.185240E+05 -1.090717E+05 -4.551913E+04  1.036342E+04  2.481542E-13 -7.237830E-14
       125  24 -1.129237E+05 -1.053765E+05 -4.366004E+04  6.771583E+03  1.706060E-12 -2.410456E-12
       125  25 -1.240776E+05 -1.075098E+05 -4.631748E+04  1.165169E+04  1.654361E-12 -2.460862E-12
       125  26 -1.209930E+05 -1.041934E+05 -4.503729E+04  7.395402E+03  1.323489E-12 -2.109311E-12
       125  27 -1.152300E+05 -1.010282E+05 -4.325162E+04  3.669872E+03  1.840477E-12 -2.300596E-12
       126   1 -1.097153E+05 -1.073394E+05 -4.341093E+04  4.079275E+03 -2.016253E-12  2.517731E-12
       126   2 -1.031860E+05 -1.022463E+05 -4.108644E+04  2.530255E+03 -2.305766E-12  2.251482E-12
       126   3 -1.013059E+05 -1.004444E+05 -4.035005E+04 -1.389299E+03 -2.592694E-12  2.430489E-12
       126   4 -1.111424E+05 -1.033033E+05 -4.288913E+04  1.791832E+03 -1.737079E-12  2.129990E-12
       126   5 -1.039995E+05 -1.001784E+05 -4.083558E+04  6.547873E+02  4.135903E-14 -1.447566E-13
       126   6 -1.011176E+05 -9.993109E+04 -4.020974E+04 -2.572407E+03 -2.305766E-12  2.202368E-12
       126   7 -1.124190E+05 -9.840449E+04 -4.216470E+04 -4.924805E+02 -1.819797E-12  2.481542E-12
       126   8 -1.046863E+05 -9.735795E+04 -4.040884E+04 -1.269725E+03 -2.067952E-12  2.067952E-12
       126   9 -1.008019E+05 -9.881017E+04 -3.992241E+04 -3.864290E+03 -2.584939E-12  2.522901E-12
       126  10 -1.097153E+05 -1.073394E+05 -4.341093E+04  4.079275E+03  2.067952E-14  0.000000E+00
       126  11 -1.031860E+05 -1.022463E+05 -4.108644E+04  2.530255E+03 -1.033976E-14  0.000000E+00
       126  12 -1.013059E+05 -1.004444E+05 -4.035005E+04 -1.389299E+03 -5.169879E-15  0.000000E+00
       126  13 -1.111424E+05 -1.033033E+05 -4.288913E+04  1.791832E+03  0.000000E+00  2.067952E-14
       126  14 -1.039995E+05 -1.001784E+05 -4.083558E+04  6.547873E+02  2.067952E-14 -2.067952E-14
       126  15 -1.011176E+05 -9.993109E+04 -4.020974E+04 -2.572407E+03  0.000000E+00 -2.584939E-14
       126  16 -1.124190E+05 -9.840449E+04 -4.216470E+04 -4.924805E+02  0.000000E+00  1.033976E-14
       126  17 -1.046863E+05 -9.735795E+04 -4.040884E+04 -1.269725E+03  0.000000E+00  1.033976E-14
       126  18 -1.008019E+05 -9.881017E+04 -3.992241E+04 -3.864290E+03 -2.584939E-15 -5.169879E-15
       126  19 -1.097153E+05 -1.073394E+05 -4.341093E+04  4.079275E+03  2.512561E-12 -2.600449E-12
       126  20 -1.031860E+05 -1.022463E+05 -4.108644E+04  2.530255E+03  1.974894E-12 -2.334200E-12
       126  21 -1.013059E+05 -1.004444E+05 -4.035005E+04 -1.389299E+03  2.551335E-12 -2.430489E-12
       126  22 -1.111424E+05 -1.033033E+05 -4.288913E+04  1.791832E+03  1.737079E-12 -2.129990E-12
       126  23 -1.039995E+05 -1.001784E+05 -4.083558E+04  6.547873E+02  4.135903E-14  6.203855E-14
       126  24 -1.011176E+05 -9.993109E+04 -4.020974E+04 -2.572407E+03  2.305766E-12 -2.202368E-12
       126  25 -1.124190E+05 -9.840449E+04 -4.216470E+04 -4.924805E+02  1.819797E-12 -2.316106E-12
       126  26 -1.046863E+05 -9.735795E+04 -4.040884E+04 -1.269725E+03  2.067952E-12 -2.067952E-12
       126  27 -1.008019E+05 -9.881017E+04 -3.992241E+04 -3.864290E+03  2.626298E-12 -2.605619E-12
       127   1 -1.133909E+05 -9.597297E+04 -4.187278E+04 -2.296025E+03 -1.571643E-12  2.192029E-12
       127   2 -1.041407E+05 -9.583476E+04 -3.999509E+04 -2.437435E+03 -1.949044E-12  2.145500E-12
       127   3 -1.008562E+05 -9.853882E+04 -3.987901E+04 -4.935325E+03 -2.508684E-12  2.422734E-12
       127   4 -1.143756E+05 -9.157361E+04 -4.118984E+04 -5.844901E+03 -1.199412E-12  1.840477E-12
       127   5 -1.037404E+05 -9.389077E+04 -3.952624E+04 -5.465084E+03  8.271806E-14  7.237830E-14
       127   6 -9.829897E+04 -9.898310E+04 -3.945641E+04 -7.196298E+03 -2.295426E-12  2.326445E-12
       127   7 -1.151455E+05 -8.547632E+04 -4.012437E+04 -9.499057E+03 -1.488925E-12  1.861156E-12
       127   8 -1.031039E+05 -9.020474E+04 -3.866173E+04 -8.708805E+03 -1.778438E-12  1.881836E-12
       127   9 -9.536929E+04 -9.759581E+04 -3.859302E+04 -9.846504E+03 -2.688337E-12  2.440183E-12
       127  10 -1.133909E+05 -9.597297E+04 -4.187278E+04 -2.296025E+03  2.067952E-14  1.550964E-14
       127  11 -1.041407E+05 -9.583476E+04 -3.999509E+04 -2.437435E+03 -1.033976E-14  7.754818E-15
       127  12 -1.008562E+05 -9.853882E+04 -3.987901E+04 -4.935325E+03  0.000000E+00  1.227846E-14
       127  13 -1.143756E+05 -9.157361E+04 -4.118984E+04 -5.844901E+03  0.000000E+00  0.000000E+00
       127  14 -1.037404E+05 -9.389077E+04 -3.952624E+04 -5.465084E+03  0.000000E+00  0.000000E+00
       127  15 -9.829897E+04 -9.898310E+04 -3.945641E+04 -7.196298E+03  2.584939E-14 -1.292470E-14
       127  16 -1.151455E+05 -8.547632E+04 -4.012437E+04 -9.499057E+03  0.000000E+00  5.169879E-15
       127  17 -1.031039E+05 -9.020474E+04 -3.866173E+04 -8.708805E+03 -1.033976E-14 -1.550964E-14
       127  18 -9.536929E+04 -9.759581E+04 -3.859302E+04 -9.846504E+03 -6.462349E-15 -1.938705E-15
       127  19 -1.133909E+05 -9.597297E+04 -4.187278E+04 -2.296025E+03  1.571643E-12 -2.274747E-12
       127  20 -1.041407E+05 -9.583476E+04 -3.999509E+04 -2.437435E+03  2.031762E-12 -2.145500E-12
       127  21 -1.008562E+05 -9.853882E+04 -3.987901E+04 -4.935325E+03  2.550043E-12 -2.422734E-12
       127  22 -1.143756E+05 -9.157361E+04 -4.118984E+04 -5.844901E+03  1.364848E-12 -1.799118E-12
       127  23 -1.037404E+05 -9.389077E+04 -3.952624E+04 -5.465084E+03  0.000000E+00  1.033976E-14
       127  24 -9.829897E+04 -9.898310E+04 -3.945641E+04 -7.196298E+03  2.398824E-12 -2.243727E-12
       127  25 -1.151455E+05 -8.547632E+04 -4.012437E+04 -9.499057E+03  1.488925E-12 -1.819797E-12
       127  26 -1.031039E+05 -9.020474E+04 -3.866173E+04 -8.708805E+03  1.861156E-12 -1.840477E-12
       127  27 -9.536929E+04 -9.759581E+04 -3.859302E+04 -9.846504E+03  2.709017E-12 -2.440183E-12
       128   1 -1.262281E+05 -1.042444E+05 -4.609451E+04  9.823035E+03 -1.344168E-12  2.339370E-12
       128   2 -1.223937E+05 -1.004420E+05 -4.456714E+04  5.947582E+03 -1.323489E-12  2.074414E-12
       128   3 -1.168407E+05 -9.825016E+04 -4.301818E+04  1.729834E+03 -1.744834E-12  2.155516E-12
       128   4 -1.297958E+05 -9.836418E+04 -4.563200E+04  6.550416E+03 -1.240771E-12  1.912855E-12
       128   5 -1.253487E+05 -9.513906E+04 -4.409755E+04  2.417017E+03 -1.240771E-13  4.135903E-14
       128   6 -1.187529E+05 -9.326492E+04 -4.240356E+04 -2.069468E+03 -1.344168E-12  1.759051E-12
       128   7 -1.331383E+05 -9.102559E+04 -4.483277E+04  3.326265E+03 -1.323489E-12  1.902515E-12
       128   8 -1.281443E+05 -8.829342E+04 -4.328754E+04 -1.174225E+03 -1.240771E-12  1.571643E-12
       128   9 -1.205721E+05 -8.660303E+04 -4.143503E+04 -6.083212E+03 -1.199412E-12  1.889591E-12
       128  10 -1.262281E+05 -1.042444E+05 -4.609451E+04  9.823035E+03  2.067952E-14  2.584939E-15
       128  11 -1.223937E+05 -1.004420E+05 -4.456714E+04  5.947582E+03 -2.067952E-14  1.292470E-14
       128  12 -1.168407E+05 -9.825016E+04 -4.301818E+04  1.729834E+03  4.135903E-14  9.693523E-16
       128  13 -1.297958E+05 -9.836418E+04 -4.563200E+04  6.550416E+03  8.271806E-14  1.033976E-14
       128  14 -1.253487E+05 -9.513906E+04 -4.409755E+04  2.417017E+03  0.000000E+00 -5.169879E-15
       128  15 -1.187529E+05 -9.326492E+04 -4.240356E+04 -2.069468E+03  0.000000E+00  5.169879E-15
       128  16 -1.331383E+05 -9.102559E+04 -4.483277E+04  3.326265E+03 -2.067952E-14  2.584939E-15
       128  17 -1.281443E+05 -8.829342E+04 -4.328754E+04 -1.174225E+03 -3.101927E-14 -1.033976E-14
       128  18 -1.205721E+05 -8.660303E+04 -4.143503E+04 -6.083212E+03  3.360421E-14 -7.108583E-15
       128  19 -1.262281E+05 -1.042444E+05 -4.609451E+04  9.823035E+03  1.509605E-12 -2.339370E-12
       128  20 -1.223937E+05 -1.004420E+05 -4.456714E+04  5.947582E+03  1.819797E-12 -1.991696E-12
       128  21 -1.168407E+05 -9.825016E+04 -4.301818E+04  1.729834E+03  1.744834E-12 -2.238234E-12
       128  22 -1.297958E+05 -9.836418E+04 -4.563200E+04  6.550416E+03  1.406207E-12 -1.912855E-12
       128  23 -1.253487E+05 -9.513906E+04 -4.409755E+04  2.417017E+03  2.895132E-13 -4.135903E-14
       128  24 -1.187529E+05 -9.326492E+04 -4.240356E+04 -2.069468E+03  1.178732E-12 -1.883128E-12
       128  25 -1.331383E+05 -9.102559E+04 -4.483277E+04  3.326265E+03  1.323489E-12 -1.819797E-12
       128  26 -1.281443E+05 -8.829342E+04 -4.328754E+04 -1.174225E+03  1.240771E-12 -1.571643E-12
       128  27 -1.205721E+05 -8.660303E+04 -4.143503E+04 -6.083212E+03  1.364848E-12 -1.806873E-12
       129   1 -1.605517E+05 -7.972355E+04 -4.805504E+04  7.415541E+03 -8.685396E-13  1.248526E-12
       129   2 -1.556908E+05 -8.089042E+04 -4.731625E+04  6.161356E+03 -6.307252E-13  1.176147E-12
       129   3 -1.517493E+05 -8.254262E+04 -4.685839E+04  5.410140E+03 -9.719372E-13  1.417355E-12
       129   4 -1.554604E+05 -7.405569E+04 -4.590322E+04  2.630442E+03 -6.617445E-13  9.926167E-13
       129   5 -1.489006E+05 -7.620015E+04 -4.502015E+04  8.018567E+02  8.271806E-14  5.169879E-15
       129   6 -1.432582E+05 -7.896463E+04 -4.444457E+04 -4.784504E+02 -8.737095E-13  1.265328E-12
       129   7 -1.516766E+05 -6.841535E+04 -4.401839E+04 -2.126877E+03 -6.617445E-13  9.926167E-13
       129   8 -1.431929E+05 -7.177663E+04 -4.299391E+04 -4.746196E+03 -5.790264E-13  1.044316E-12
       129   9 -1.355981E+05 -7.594630E+04 -4.230888E+04 -6.788672E+03 -1.008126E-12  1.394575E-12
       129  10 -1.605517E+05 -7.972355E+04 -4.805504E+04  7.415541E+03  0.000000E+00  0.000000E+00
       129  11 -1.556908E+05 -8.089042E+04 -4.731625E+04  6.161356E+03 -3.101927E-14 -9.693523E-16
       129  12 -1.517493E+05 -8.254262E+04 -4.685839E+04  5.410140E+03  1.938705E-14  1.211690E-15
       129  13 -1.554604E+05 -7.405569E+04 -4.590322E+04  2.630442E+03  4.135903E-14 -2.584939E-15
       129  14 -1.489006E+05 -7.620015E+04 -4.502015E+04  8.018567E+02  4.135903E-14 -5.816114E-15
       129  15 -1.432582E+05 -7.896463E+04 -4.444457E+04 -4.784504E+02  1.550964E-14 -1.615587E-16
       129  16 -1.516766E+05 -6.841535E+04 -4.401839E+04 -2.126877E+03 -1.033976E-14  2.584939E-15
       129  17 -1.431929E+05 -7.177663E+04 -4.299391E+04 -4.746196E+03  3.101927E-14  1.292470E-15
       129  18 -1.355981E+05 -7.594630E+04 -4.230888E+04 -6.788672E+03 -7.754818E-15 -4.846761E-15
       129  19 -1.605517E+05 -7.972355E+04 -4.805504E+04  7.415541E+03  7.031035E-13 -1.248526E-12
       129  20 -1.556908E+05 -8.089042E+04 -4.731625E+04  6.161356E+03  6.307252E-13 -1.176147E-12
       129  21 -1.517493E+05 -8.254262E+04 -4.685839E+04  5.410140E+03  1.137373E-12 -1.417355E-12
       129  22 -1.554604E+05 -7.405569E+04 -4.590322E+04  2.630442E+03  6.617445E-13 -9.926167E-13
       129  23 -1.489006E+05 -7.620015E+04 -4.502015E+04  8.018567E+02 -8.271806E-14  5.169879E-15
       129  24 -1.432582E+05 -7.896463E+04 -4.444457E+04 -4.784504E+02  8.737095E-13 -1.265328E-12
       129  25 -1.516766E+05 -6.841535E+04 -4.401839E+04 -2.126877E+03  5.790264E-13 -9.926167E-13
       129  26 -1.431929E+05 -7.177663E+04 -4.299391E+04 -4.746196E+03  5.790264E-13 -1.023636E-12
       129  27 -1.355981E+05 -7.594630E+04 -4.230888E+04 -6.788672E+03  1.008126E-12 -1.394575E-12
       130   1 -1.465979E+05 -8.378289E+04 -4.607615E+04  4.659744E+03 -1.240771E-12  1.519944E-12
       130   2 -1.417420E+05 -8.558734E+04 -4.546587E+04  3.277647E+03 -9.771071E-13  1.399745E-12
       130   3 -1.381756E+05 -8.790647E+04 -4.521641E+04  2.327850E+03 -9.111911E-13  1.751620E-12
       130   4 -1.427982E+05 -7.971639E+04 -4.450292E+04 -5.743579E+02 -9.098987E-13  1.282130E-12
       130   5 -1.357831E+05 -8.203266E+04 -4.356314E+04 -1.648049E+03 -1.654361E-13  0.000000E+00
       130   6 -1.300998E+05 -8.500744E+04 -4.302144E+04 -2.189336E+03 -1.075335E-12  1.491510E-12
       130   7 -1.403166E+05 -7.659431E+04 -4.338217E+04 -6.512713E+03 -9.098987E-13  1.344168E-12
       130   8 -1.307362E+05 -7.967076E+04 -4.208139E+04 -7.426116E+03 -9.926167E-13  1.364848E-12
       130   9 -1.224835E+05 -8.361610E+04 -4.121992E+04 -7.705044E+03 -1.220091E-12  1.853402E-12
       130  10 -1.465979E+05 -8.378289E+04 -4.607615E+04  4.659744E+03  2.067952E-14  2.584939E-15
       130  11 -1.417420E+05 -8.558734E+04 -4.546587E+04  3.277647E+03  1.033976E-14 -7.754818E-15
       130  12 -1.381756E+05 -8.790647E+04 -4.521641E+04  2.327850E+03 -2.455692E-14 -3.231174E-16
       130  13 -1.427982E+05 -7.971639E+04 -4.450292E+04 -5.743579E+02 -4.135903E-14  1.033976E-14
       130  14 -1.357831E+05 -8.203266E+04 -4.356314E+04 -1.648049E+03 -8.271806E-14  5.169879E-15
       130  15 -1.300998E+05 -8.500744E+04 -4.302144E+04 -2.189336E+03 -5.169879E-15 -6.462349E-15
       130  16 -1.403166E+05 -7.659431E+04 -4.338217E+04 -6.512713E+03 -1.033976E-14 -7.754818E-15
       130  17 -1.307362E+05 -7.967076E+04 -4.208139E+04 -7.426116E+03  2.067952E-14  1.680211E-14
       130  18 -1.224835E+05 -8.361610E+04 -4.121992E+04 -7.705044E+03  5.169879E-15  9.693523E-15
       130  19 -1.465979E+05 -8.378289E+04 -4.607615E+04  4.659744E+03  1.240771E-12 -1.509605E-12
       130  20 -1.417420E+05 -8.558734E+04 -4.546587E+04  3.277647E+03  6.462349E-13 -1.420424E-12
       130  21 -1.381756E+05 -8.790647E+04 -4.521641E+04  2.327850E+03  9.111911E-13 -1.689581E-12
       130  22 -1.427982E+05 -7.971639E+04 -4.450292E+04 -5.743579E+02  5.790264E-13 -1.282130E-12
       130  23 -1.357831E+05 -8.203266E+04 -4.356314E+04 -1.648049E+03  0.000000E+00  4.135903E-14
       130  24 -1.300998E+05 -8.500744E+04 -4.302144E+04 -2.189336E+03  1.075335E-12 -1.450151E-12
       130  25 -1.403166E+05 -7.659431E+04 -4.338217E+04 -6.512713E+03  9.098987E-13 -1.385528E-12
       130  26 -1.307362E+05 -7.967076E+04 -4.208139E+04 -7.426116E+03  8.271806E-13 -1.447566E-12
       130  27 -1.224835E+05 -8.361610E+04 -4.121992E+04 -7.705044E+03  1.220091E-12 -1.812043E-12
       131   1 -1.221887E+05 -7.033407E+04 -3.850456E+04 -1.534365E+04 -8.342084E-13  1.289885E-12
       131   2 -1.183942E+05 -7.681666E+04 -3.904218E+04 -1.328988E+04 -8.779908E-13  1.419132E-12
       131   3 -1.142265E+05 -8.277598E+04 -3.940050E+04 -1.153942E+04 -1.181024E-12  1.865357E-12
       131   4 -1.067015E+05 -7.902479E+04 -3.714526E+04 -1.915645E+04 -1.357093E-12  1.571643E-12
       131   5 -1.069613E+05 -8.439177E+04 -3.827062E+04 -1.529817E+04  1.003280E-13  7.237830E-14
       131   6 -1.068121E+05 -8.897834E+04 -3.915809E+04 -1.174973E+04 -1.753801E-12  1.871496E-12
       131   7 -7.963398E+04 -8.880345E+04 -3.368749E+04 -2.370211E+04 -2.399470E-12  2.233388E-12
       131   8 -8.448995E+04 -9.297841E+04 -3.549367E+04 -1.770698E+04 -2.285410E-12  2.067952E-12
       131   9 -8.899515E+04 -9.601980E+04 -3.700299E+04 -1.196566E+04 -2.724930E-12  2.435013E-12
       131  10 -1.221887E+05 -7.033407E+04 -3.850456E+04 -1.534365E+04  1.033976E-14  0.000000E+00
       131  11 -1.183942E+05 -7.681666E+04 -3.904218E+04 -1.328988E+04 -1.033976E-14  0.000000E+00
       131  12 -1.142265E+05 -8.277598E+04 -3.940050E+04 -1.153942E+04 -9.047288E-15  6.462349E-16
       131  13 -1.067015E+05 -7.902479E+04 -3.714526E+04 -1.915645E+04 -1.033976E-14 -1.033976E-14
       131  14 -1.069613E+05 -8.439177E+04 -3.827062E+04 -1.529817E+04 -1.550964E-14 -1.550964E-14
       131  15 -1.068121E+05 -8.897834E+04 -3.915809E+04 -1.174973E+04 -1.292470E-15 -6.462349E-15
       131  16 -7.963398E+04 -8.880345E+04 -3.368749E+04 -2.370211E+04 -5.169879E-15 -1.033976E-14
       131  17 -8.448995E+04 -9.297841E+04 -3.549367E+04 -1.770698E+04  2.584939E-15  1.550964E-14
       131  18 -8.899515E+04 -9.601980E+04 -3.700299E+04 -1.196566E+04  5.169879E-15 -1.292470E-15
       131  19 -1.221887E+05 -7.033407E+04 -3.850456E+04 -1.534365E+04  7.514904E-13 -1.289885E-12
       131  20 -1.183942E+05 -7.681666E+04 -3.904218E+04 -1.328988E+04  9.607089E-13 -1.377773E-12
       131  21 -1.142265E+05 -8.277598E+04 -3.940050E+04 -1.153942E+04  1.263743E-12 -1.865357E-12
       131  22 -1.067015E+05 -7.902479E+04 -3.714526E+04 -1.915645E+04  1.274375E-12 -1.530284E-12
       131  23 -1.069613E+05 -8.439177E+04 -3.827062E+04 -1.529817E+04 -1.760990E-14 -3.101927E-14
       131  24 -1.068121E+05 -8.897834E+04 -3.915809E+04 -1.174973E+04  1.712442E-12 -1.830137E-12
       131  25 -7.963398E+04 -8.880345E+04 -3.368749E+04 -2.370211E+04  2.399470E-12 -2.274747E-12
       131  26 -8.448995E+04 -9.297841E+04 -3.549367E+04 -1.770698E+04  2.306089E-12 -2.109311E-12
       131  27 -8.899515E+04 -9.601980E+04 -3.700299E+04 -1.196566E+04  2.724930E-12 -2.435013E-12
       132   1 -1.437884E+05 -6.044507E+04 -4.084670E+04 -1.115352E+04 -2.776386E-13  7.864678E-13
       132   2 -1.353023E+05 -6.454218E+04 -3.996890E+04 -1.278026E+04 -5.066885E-13  8.659547E-13
       132   3 -1.258732E+05 -6.755629E+04 -3.868591E+04 -1.506254E+04 -7.447049E-13  1.170978E-12
       132   4 -1.196819E+05 -5.797815E+04 -3.553202E+04 -2.934677E+04 -5.362941E-13  8.065011E-13
       132   5 -1.209917E+05 -6.568297E+04 -3.733494E+04 -2.445384E+04 -1.016204E-13 -2.067952E-14
       132   6 -1.221978E+05 -7.275574E+04 -3.899071E+04 -1.969239E+04 -9.140992E-13  1.261450E-12
       132   7 -4.907479E+04 -6.137389E+04 -2.208974E+04 -5.424978E+04 -1.423494E-12  1.636267E-12
       132   8 -5.539770E+04 -7.371247E+04 -2.582203E+04 -4.281583E+04 -1.701859E-12  1.778438E-12
       132   9 -6.192413E+04 -8.614330E+04 -2.961348E+04 -3.085377E+04 -2.451815E-12  2.316106E-12
       132  10 -1.437884E+05 -6.044507E+04 -4.084670E+04 -1.115352E+04  5.169879E-15  0.000000E+00
       132  11 -1.353023E+05 -6.454218E+04 -3.996890E+04 -1.278026E+04  1.292470E-14 -5.169879E-15
       132  12 -1.258732E+05 -6.755629E+04 -3.868591E+04 -1.506254E+04 -7.754818E-15  2.584939E-15
       132  13 -1.196819E+05 -5.797815E+04 -3.553202E+04 -2.934677E+04  0.000000E+00  5.169879E-15
       132  14 -1.209917E+05 -6.568297E+04 -3.733494E+04 -2.445384E+04  1.033976E-14 -5.169879E-15
       132  15 -1.221978E+05 -7.275574E+04 -3.899071E+04 -1.969239E+04 -6.462349E-15 -6.462349E-15
       132  16 -4.907479E+04 -6.137389E+04 -2.208974E+04 -5.424978E+04  0.000000E+00  2.584939E-15
       132  17 -5.539770E+04 -7.371247E+04 -2.582203E+04 -4.281583E+04 -2.584939E-15  1.292470E-14
       132  18 -6.192413E+04 -8.614330E+04 -2.961348E+04 -3.085377E+04 -1.938705E-15  3.877409E-15
       132  19 -1.437884E+05 -6.044507E+04 -4.084670E+04 -1.115352E+04  4.430748E-13 -8.278268E-13
       132  20 -1.353023E+05 -6.454218E+04 -3.996890E+04 -1.278026E+04  5.894066E-13 -8.866342E-13
       132  21 -1.258732E+05 -6.755629E+04 -3.868591E+04 -1.506254E+04  6.619868E-13 -1.150298E-12
       132  22 -1.196819E+05 -5.797815E+04 -3.553202E+04 -2.934677E+04  5.362941E-13 -8.065011E-13
       132  23 -1.209917E+05 -6.568297E+04 -3.733494E+04 -2.445384E+04  6.026140E-14  0.000000E+00
       132  24 -1.221978E+05 -7.275574E+04 -3.899071E+04 -1.969239E+04  9.140992E-13 -1.261450E-12
       132  25 -4.907479E+04 -6.137389E+04 -2.208974E+04 -5.424978E+04  1.413154E-12 -1.636267E-12
       132  26 -5.539770E+04 -7.371247E+04 -2.582203E+04 -4.281583E+04  1.701859E-12 -1.757759E-12
       132  27 -6.192413E+04 -8.614330E+04 -2.961348E+04 -3.085377E+04  2.451815E-12 -2.398824E-12
       133   1 -2.579384E+05 -6.635570E+04 -6.485882E+04  6.321293E+04 -3.166551E-14  4.701359E-14
       133   2 -2.372140E+05 -6.832076E+04 -6.110694E+04  5.051641E+04 -8.271806E-14  2.701262E-13
       133   3 -2.198591E+05 -7.272989E+04 -5.851780E+04  4.043486E+04 -1.912855E-13  4.627042E-13
       133   4 -2.410569E+05 -6.202792E+04 -6.061696E+04  4.752161E+04 -3.877409E-14  3.101927E-14
       133   5 -2.238966E+05 -6.413913E+04 -5.760714E+04  3.728948E+04  2.067952E-14 -1.033976E-14
       133   6 -2.083451E+05 -6.746984E+04 -5.516299E+04  2.811469E+04 -1.447566E-13  3.877409E-13
       133   7 -2.211822E+05 -5.697681E+04 -5.563180E+04  3.032426E+04 -2.067952E-14  5.299126E-14
       133   8 -2.095236E+05 -5.965038E+04 -5.383479E+04  2.453550E+04 -2.067952E-14  1.964554E-13
       133   9 -1.978249E+05 -6.180791E+04 -5.192656E+04  1.851279E+04 -1.654361E-13  3.825710E-13
       133  10 -2.579384E+05 -6.635570E+04 -6.485882E+04  6.321293E+04 -1.292470E-15 -4.362085E-15
       133  11 -2.372140E+05 -6.832076E+04 -6.110694E+04  5.051641E+04 -2.067952E-14  4.200527E-15
       133  12 -2.198591E+05 -7.272989E+04 -5.851780E+04  4.043486E+04 -8.401053E-15 -2.261822E-15
       133  13 -2.410569E+05 -6.202792E+04 -6.061696E+04  4.752161E+04 -2.584939E-15  0.000000E+00
       133  14 -2.238966E+05 -6.413913E+04 -5.760714E+04  3.728948E+04 -1.033976E-14  1.292470E-15
       133  15 -2.083451E+05 -6.746984E+04 -5.516299E+04  2.811469E+04  7.754818E-15  0.000000E+00
       133  16 -2.211822E+05 -5.697681E+04 -5.563180E+04  3.032426E+04  0.000000E+00  0.000000E+00
       133  17 -2.095236E+05 -5.965038E+04 -5.383479E+04  2.453550E+04 -1.033976E-14  0.000000E+00
       133  18 -1.978249E+05 -6.180791E+04 -5.192656E+04  1.851279E+04  0.000000E+00  0.000000E+00
       133  19 -2.579384E+05 -6.635570E+04 -6.485882E+04  6.321293E+04  4.200527E-14 -5.218346E-14
       133  20 -2.372140E+05 -6.832076E+04 -6.110694E+04  5.051641E+04  1.240771E-13 -2.287671E-13
       133  21 -2.198591E+05 -7.272989E+04 -5.851780E+04  4.043486E+04  2.740036E-13 -4.627042E-13
       133  22 -2.410569E+05 -6.202792E+04 -6.061696E+04  4.752161E+04  1.809458E-14 -4.135903E-14
       133  23 -2.238966E+05 -6.413913E+04 -5.760714E+04  3.728948E+04  6.203855E-14  1.033976E-14
       133  24 -2.083451E+05 -6.746984E+04 -5.516299E+04  2.811469E+04  1.447566E-13 -3.877409E-13
       133  25 -2.211822E+05 -5.697681E+04 -5.563180E+04  3.032426E+04  2.067952E-14 -5.299126E-14
       133  26 -2.095236E+05 -5.965038E+04 -5.383479E+04  2.453550E+04  6.203855E-14 -1.964554E-13
       133  27 -1.978249E+05 -6.180791E+04 -5.192656E+04  1.851279E+04  2.481542E-13 -3.618915E-13
       134   1 -2.107181E+05 -7.437985E+04 -5.701960E+04  3.267304E+04 -3.670614E-13  5.984135E-13
       134   2 -1.870748E+05 -7.358384E+04 -5.213173E+04  1.962391E+04 -4.497795E-13  7.657883E-13
       134   3 -1.700506E+05 -7.680511E+04 -4.937114E+04  1.098663E+04 -7.696657E-13  1.076143E-12
       134   4 -2.049345E+05 -6.799224E+04 -5.458535E+04  2.684192E+04 -6.203855E-14  3.774012E-13
       134   5 -1.809816E+05 -6.798374E+04 -4.979307E+04  1.352733E+04 -2.481542E-13  2.584939E-14
       134   6 -1.644672E+05 -7.193190E+04 -4.727983E+04  5.188360E+03 -2.042102E-13  8.743558E-13
       134   7 -1.979481E+05 -6.194629E+04 -5.197889E+04  1.938733E+04 -1.240771E-13  3.825710E-13
       134   8 -1.738711E+05 -6.310029E+04 -4.739428E+04  6.104116E+03 -3.929108E-13  5.376674E-13
       134   9 -1.582976E+05 -6.798163E+04 -4.525585E+04 -1.536337E+03 -3.567216E-13  9.047288E-13
       134  10 -2.107181E+05 -7.437985E+04 -5.701960E+04  3.267304E+04 -1.033976E-14  0.000000E+00
       134  11 -1.870748E+05 -7.358384E+04 -5.213173E+04  1.962391E+04  1.550964E-14 -7.754818E-15
       134  12 -1.700506E+05 -7.680511E+04 -4.937114E+04  1.098663E+04 -1.809458E-14  0.000000E+00
       134  13 -2.049345E+05 -6.799224E+04 -5.458535E+04  2.684192E+04  2.067952E-14  0.000000E+00
       134  14 -1.809816E+05 -6.798374E+04 -4.979307E+04  1.352733E+04 -3.101927E-14  0.000000E+00
       134  15 -1.644672E+05 -7.193190E+04 -4.727983E+04  5.188360E+03  5.169879E-15 -1.292470E-15
       134  16 -1.979481E+05 -6.194629E+04 -5.197889E+04  1.938733E+04  1.033976E-14  0.000000E+00
       134  17 -1.738711E+05 -6.310029E+04 -4.739428E+04  6.104116E+03 -2.067952E-14  2.584939E-15
       134  18 -1.582976E+05 -6.798163E+04 -4.525585E+04 -1.536337E+03 -3.877409E-15  6.462349E-16
       134  19 -2.107181E+05 -7.437985E+04 -5.701960E+04  3.267304E+04  2.843433E-13 -6.397725E-13
       134  20 -1.870748E+05 -7.358384E+04 -5.213173E+04  1.962391E+04  2.843433E-13 -7.244293E-13
       134  21 -1.700506E+05 -7.680511E+04 -4.937114E+04  1.098663E+04  6.042296E-13 -1.076143E-12
       134  22 -2.049345E+05 -6.799224E+04 -5.458535E+04  2.684192E+04  2.274747E-13 -4.601192E-13
       134  23 -1.809816E+05 -6.798374E+04 -4.979307E+04  1.352733E+04  2.481542E-13 -5.169879E-15
       134  24 -1.644672E+05 -7.193190E+04 -4.727983E+04  5.188360E+03  3.696463E-13 -8.640160E-13
       134  25 -1.979481E+05 -6.194629E+04 -5.197889E+04  1.938733E+04  2.067952E-13 -4.032505E-13
       134  26 -1.738711E+05 -6.310029E+04 -4.739428E+04  6.104116E+03  2.274747E-13 -5.428373E-13
       134  27 -1.582976E+05 -6.798163E+04 -4.525585E+04 -1.536337E+03  3.567216E-13 -9.150686E-13
       135   1 -2.055219E+05 -5.344962E+04 -5.179430E+04  1.856627E+04 -1.421717E-14  6.171543E-14
       135   2 -2.005964E+05 -5.824045E+04 -5.176737E+04  1.790110E+04 -1.602662E-13  2.223048E-13
       135   3 -1.943413E+05 -5.979182E+04 -5.082663E+04  1.621488E+04 -9.305782E-14  3.399195E-13
       135   4 -1.712088E+05 -4.523781E+04 -4.328933E+04 -4.162032E+03 -5.169879E-14  6.720842E-14
       135   5 -1.759089E+05 -5.467033E+04 -4.611584E+04  2.598015E+03 -2.067952E-14 -5.169879E-15
       135   6 -1.805785E+05 -6.382532E+04 -4.888076E+04  9.452210E+03 -2.481542E-13  5.169879E-13
       135   7 -1.346055E+05 -3.644899E+04 -3.421090E+04 -2.716752E+04 -4.652891E-14  9.305782E-14
       135   8 -1.432197E+05 -4.876026E+04 -3.839598E+04 -1.662873E+04 -2.481542E-13  3.929108E-13
       135   9 -1.503873E+05 -6.192597E+04 -4.246266E+04 -6.724791E+03 -4.549493E-13  8.065011E-13
       135  10 -2.055219E+05 -5.344962E+04 -5.179430E+04  1.856627E+04 -1.292470E-15 -6.462349E-16
       135  11 -2.005964E+05 -5.824045E+04 -5.176737E+04  1.790110E+04 -3.877409E-15 -1.292470E-15
       135  12 -1.943413E+05 -5.979182E+04 -5.082663E+04  1.621488E+04 -6.462349E-16  0.000000E+00
       135  13 -1.712088E+05 -4.523781E+04 -4.328933E+04 -4.162032E+03  0.000000E+00  0.000000E+00
       135  14 -1.759089E+05 -5.467033E+04 -4.611584E+04  2.598015E+03 -1.550964E-14 -2.584939E-15
       135  15 -1.805785E+05 -6.382532E+04 -4.888076E+04  9.452210E+03 -3.101927E-14  1.292470E-15
       135  16 -1.346055E+05 -3.644899E+04 -3.421090E+04 -2.716752E+04 -5.169879E-15  0.000000E+00
       135  17 -1.432197E+05 -4.876026E+04 -3.839598E+04 -1.662873E+04 -2.067952E-14  5.169879E-15
       135  18 -1.503873E+05 -6.192597E+04 -4.246266E+04 -6.724791E+03  0.000000E+00  0.000000E+00
       135  19 -2.055219E+05 -5.344962E+04 -5.179430E+04  1.856627E+04  2.972680E-14 -6.171543E-14
       135  20 -2.005964E+05 -5.824045E+04 -5.176737E+04  1.790110E+04  7.754818E-14 -2.119650E-13
       135  21 -1.943413E+05 -5.979182E+04 -5.082663E+04  1.621488E+04  1.757759E-13 -3.399195E-13
       135  22 -1.712088E+05 -4.523781E+04 -4.328933E+04 -4.162032E+03  5.169879E-14 -6.720842E-14
       135  23 -1.759089E+05 -5.467033E+04 -4.611584E+04  2.598015E+03  2.067952E-14  0.000000E+00
       135  24 -1.805785E+05 -6.382532E+04 -4.888076E+04  9.452210E+03  3.308722E-13 -5.169879E-13
       135  25 -1.346055E+05 -3.644899E+04 -3.421090E+04 -2.716752E+04  4.652891E-14 -9.176535E-14
       135  26 -1.432197E+05 -4.876026E+04 -3.839598E+04 -1.662873E+04  2.067952E-13 -3.825710E-13
       135  27 -1.503873E+05 -6.192597E+04 -4.246266E+04 -6.724791E+03  3.722313E-13 -8.065011E-13
       136   1 -1.716801E+05 -8.032090E+04 -5.040020E+04  1.401148E+04 -4.342698E-13  1.127034E-12
       136   2 -1.890837E+05 -7.800599E+04 -5.341794E+04  2.322517E+04 -3.722313E-13  7.548023E-13
       136   3 -2.067033E+05 -7.573423E+04 -5.648750E+04  3.244619E+04 -1.861156E-13  6.643294E-13
       136   4 -1.723450E+05 -8.718361E+04 -5.190572E+04  1.849314E+04 -6.617445E-13  1.282130E-12
       136   5 -1.870521E+05 -8.459640E+04 -5.432970E+04  2.627436E+04  2.481542E-13  4.135903E-14
       136   6 -2.030022E+05 -8.248829E+04 -5.709811E+04  3.440415E+04 -1.861156E-13  8.271806E-13
       136   7 -1.734621E+05 -9.459620E+04 -5.361166E+04  2.251191E+04 -3.308722E-13  1.406207E-12
       136   8 -1.849228E+05 -9.188742E+04 -5.536205E+04  2.895074E+04 -4.963084E-13  1.075335E-12
       136   9 -1.989552E+05 -9.046451E+04 -5.788394E+04  3.635201E+04 -4.135903E-13  1.209752E-12
       136  10 -1.716801E+05 -8.032090E+04 -5.040020E+04  1.401148E+04  4.135903E-14  0.000000E+00
       136  11 -1.890837E+05 -7.800599E+04 -5.341794E+04  2.322517E+04 -5.169879E-14  0.000000E+00
       136  12 -2.067033E+05 -7.573423E+04 -5.648750E+04  3.244619E+04  7.754818E-15 -3.231174E-15
       136  13 -1.723450E+05 -8.718361E+04 -5.190572E+04  1.849314E+04 -8.271806E-14  0.000000E+00
       136  14 -1.870521E+05 -8.459640E+04 -5.432970E+04  2.627436E+04  0.000000E+00  0.000000E+00
       136  15 -2.030022E+05 -8.248829E+04 -5.709811E+04  3.440415E+04  8.271806E-14  2.455692E-14
       136  16 -1.734621E+05 -9.459620E+04 -5.361166E+04  2.251191E+04 -4.135903E-14 -5.169879E-15
       136  17 -1.849228E+05 -9.188742E+04 -5.536205E+04  2.895074E+04 -4.135903E-14 -3.360421E-14
       136  18 -1.989552E+05 -9.046451E+04 -5.788394E+04  3.635201E+04 -1.292470E-14  5.816114E-15
       136  19 -1.716801E+05 -8.032090E+04 -5.040020E+04  1.401148E+04  4.342698E-13 -1.168393E-12
       136  20 -1.890837E+05 -7.800599E+04 -5.341794E+04  2.322517E+04  2.067952E-13 -8.375204E-13
       136  21 -2.067033E+05 -7.573423E+04 -5.648750E+04  3.244619E+04  1.861156E-13 -7.056885E-13
       136  22 -1.723450E+05 -8.718361E+04 -5.190572E+04  1.849314E+04  3.308722E-13 -1.199412E-12
       136  23 -1.870521E+05 -8.459640E+04 -5.432970E+04  2.627436E+04 -2.481542E-13 -4.135903E-14
       136  24 -2.030022E+05 -8.248829E+04 -5.709811E+04  3.440415E+04  3.515518E-13 -8.271806E-13
       136  25 -1.734621E+05 -9.459620E+04 -5.361166E+04  2.251191E+04  6.617445E-13 -1.406207E-12
       136  26 -1.849228E+05 -9.188742E+04 -5.536205E+04  2.895074E+04  4.963084E-13 -1.158053E-12
       136  27 -1.989552E+05 -9.046451E+04 -5.788394E+04  3.635201E+04  4.135903E-13 -1.209752E-12
       137   1 -2.186134E+05 -7.503260E+04 -5.872920E+04  4.122106E+04 -1.654361E-13  5.997059E-13
       137   2 -2.415295E+05 -7.571869E+04 -6.344964E+04  5.720483E+04 -9.305782E-14  3.567216E-13
       137   3 -2.613052E+05 -7.398244E+04 -6.705752E+04  7.024416E+04 -1.550964E-14  1.770683E-13
       137   4 -2.116305E+05 -8.471248E+04 -5.926860E+04  4.052484E+04 -3.308722E-13  7.858216E-13
       137   5 -2.269577E+05 -8.427397E+04 -6.224633E+04  5.183545E+04 -2.067952E-13  2.067952E-14
       137   6 -2.438417E+05 -8.417979E+04 -6.560429E+04  6.313427E+04 -1.964554E-13  3.515518E-13
       137   7 -2.041510E+05 -9.027936E+04 -5.888607E+04  3.943495E+04 -3.308722E-13  1.240771E-12
       137   8 -2.127456E+05 -9.348008E+04 -6.124513E+04  4.685823E+04 -3.308722E-13  7.444626E-13
       137   9 -2.290818E+05 -9.901829E+04 -6.562001E+04  5.803381E+04 -3.722313E-13  1.251111E-12
       137  10 -2.186134E+05 -7.503260E+04 -5.872920E+04  4.122106E+04 -2.067952E-14 -1.033976E-14
       137  11 -2.415295E+05 -7.571869E+04 -6.344964E+04  5.720483E+04 -2.067952E-14  0.000000E+00
       137  12 -2.613052E+05 -7.398244E+04 -6.705752E+04  7.024416E+04  0.000000E+00 -1.033976E-14
       137  13 -2.116305E+05 -8.471248E+04 -5.926860E+04  4.052484E+04 -8.271806E-14  0.000000E+00
       137  14 -2.269577E+05 -8.427397E+04 -6.224633E+04  5.183545E+04  8.271806E-14  1.033976E-14
       137  15 -2.438417E+05 -8.417979E+04 -6.560429E+04  6.313427E+04 -5.686867E-14  4.911385E-14
       137  16 -2.041510E+05 -9.027936E+04 -5.888607E+04  3.943495E+04  6.203855E-14 -1.033976E-14
       137  17 -2.127456E+05 -9.348008E+04 -6.124513E+04  4.685823E+04 -3.101927E-14  0.000000E+00
       137  18 -2.290818E+05 -9.901829E+04 -6.562001E+04  5.803381E+04 -5.169879E-15 -3.877409E-15
       137  19 -2.186134E+05 -7.503260E+04 -5.872920E+04  4.122106E+04  8.271806E-14 -5.583469E-13
       137  20 -2.415295E+05 -7.571869E+04 -6.344964E+04  5.720483E+04  9.305782E-14 -3.567216E-13
       137  21 -2.613052E+05 -7.398244E+04 -6.705752E+04  7.024416E+04  1.550964E-14 -2.391069E-13
       137  22 -2.116305E+05 -8.471248E+04 -5.926860E+04  4.052484E+04  3.308722E-13 -7.858216E-13
       137  23 -2.269577E+05 -8.427397E+04 -6.224633E+04  5.183545E+04  2.067952E-13 -2.067952E-14
       137  24 -2.438417E+05 -8.417979E+04 -6.560429E+04  6.313427E+04  3.101927E-14 -5.169879E-13
       137  25 -2.041510E+05 -9.027936E+04 -5.888607E+04  3.943495E+04  3.308722E-13 -1.158053E-12
       137  26 -2.127456E+05 -9.348008E+04 -6.124513E+04  4.685823E+04  1.654361E-13 -9.926167E-13
       137  27 -2.290818E+05 -9.901829E+04 -6.562001E+04  5.803381E+04  5.376674E-13 -1.085675E-12
       138   1 -1.739178E+05 -9.888702E+04 -5.456097E+04  2.510941E+04 -1.033976E-12  1.654361E-12
       138   2 -1.860523E+05 -9.517279E+04 -5.624501E+04  3.092421E+04 -3.722313E-13  1.147713E-12
       138   3 -1.975742E+05 -9.137842E+04 -5.779053E+04  3.661696E+04 -3.774012E-13  9.641824E-13
       138   4 -1.747762E+05 -1.068116E+05 -5.631756E+04  3.077604E+04 -4.963084E-13  1.488925E-12
       138   5 -1.902165E+05 -1.021110E+05 -5.846550E+04  3.728422E+04 -1.654361E-13  1.240771E-13
       138   6 -2.065303E+05 -9.804348E+04 -6.091475E+04  4.425196E+04 -7.651421E-13  1.364848E-12
       138   7 -1.750198E+05 -1.149685E+05 -5.799765E+04  3.609901E+04 -6.617445E-13  2.150670E-12
       138   8 -1.923507E+05 -1.088749E+05 -6.024512E+04  4.319754E+04 -3.308722E-13  1.406207E-12
       138   9 -2.109172E+05 -1.036940E+05 -6.292225E+04  5.107207E+04 -6.203855E-13  1.468246E-12
       138  10 -1.739178E+05 -9.888702E+04 -5.456097E+04  2.510941E+04  0.000000E+00  2.067952E-14
       138  11 -1.860523E+05 -9.517279E+04 -5.624501E+04  3.092421E+04 -1.033976E-13 -1.033976E-14
       138  12 -1.975742E+05 -9.137842E+04 -5.779053E+04  3.661696E+04 -5.169879E-14 -2.584939E-14
       138  13 -1.747762E+05 -1.068116E+05 -5.631756E+04  3.077604E+04  8.271806E-14  0.000000E+00
       138  14 -1.902165E+05 -1.021110E+05 -5.846550E+04  3.728422E+04  4.135903E-14 -4.135903E-14
       138  15 -2.065303E+05 -9.804348E+04 -6.091475E+04  4.425196E+04 -6.203855E-14 -1.033976E-14
       138  16 -1.750198E+05 -1.149685E+05 -5.799765E+04  3.609901E+04  4.135903E-14 -2.067952E-14
       138  17 -1.923507E+05 -1.088749E+05 -6.024512E+04  4.319754E+04 -4.135903E-14 -1.240771E-13
       138  18 -2.109172E+05 -1.036940E+05 -6.292225E+04  5.107207E+04 -6.203855E-14 -1.809458E-14
       138  19 -1.739178E+05 -9.888702E+04 -5.456097E+04  2.510941E+04  7.031035E-13 -1.571643E-12
       138  20 -1.860523E+05 -9.517279E+04 -5.624501E+04  3.092421E+04  4.135903E-14 -1.313149E-12
       138  21 -1.975742E+05 -9.137842E+04 -5.779053E+04  3.661696E+04  3.774012E-13 -1.212337E-12
       138  22 -1.747762E+05 -1.068116E+05 -5.631756E+04  3.077604E+04  1.654361E-13 -1.654361E-12
       138  23 -1.902165E+05 -1.021110E+05 -5.846550E+04  3.728422E+04  1.654361E-13 -1.240771E-13
       138  24 -2.065303E+05 -9.804348E+04 -6.091475E+04  4.425196E+04  5.997059E-13 -1.199412E-12
       138  25 -1.750198E+05 -1.149685E+05 -5.799765E+04  3.609901E+04  9.926167E-13 -2.150670E-12
       138  26 -1.923507E+05 -1.088749E+05 -6.024512E+04  4.319754E+04  3.308722E-13 -1.737079E-12
       138  27 -2.109172E+05 -1.036940E+05 -6.292225E+04  5.107207E+04  6.203855E-13 -1.302809E-12
